          10
 Point    1
C      -0.36354500     -0.90060800     -0.65289300
H      -0.26101200     -1.83500600     -0.08083600
H      -0.76979800     -1.03079500     -1.64437300
C      -0.72603700      0.34509300      0.09203300
H      -1.45379800      1.10889700     -0.15051800
C       0.64413300      0.17838400     -0.45351900
H       1.15123900      0.79118400     -1.18684400
C       0.44422600      0.38407300      1.01129700
H       0.59663900     -0.46188800      1.68106000
H       0.75127800      1.34495100      1.41820300
          10
 Point    2
C      -0.36895500     -0.90334900     -0.65184900
H      -0.25011500     -1.81747100     -0.09647900
H      -0.76293200     -1.02385600     -1.66695900
C      -0.72478300      0.34486200      0.08869900
H      -1.46873500      1.09754600     -0.12518600
C       0.64422500      0.17913300     -0.45254500
H       1.16838700      0.76881400     -1.17788400
C       0.44792500      0.38677500      1.01242600
H       0.60329100     -0.45910700      1.68468900
H       0.72901100      1.34572400      1.42074700
          10
 Point    3
C      -0.36869900     -0.90163900     -0.65920500
H      -0.26976000     -1.84039000     -0.10110200
H      -0.78145200     -1.00746700     -1.65213900
C      -0.72429800      0.34097300      0.08847200
H      -1.46714900      1.08967900     -0.12033900
C       0.64242200      0.17597100     -0.45021100
H       1.18750000      0.76839400     -1.17215600
C       0.44948900      0.38986900      1.01570700
H       0.62452100     -0.44049600      1.69974000
H       0.71927400      1.36867300      1.40835700
          10
 Point    4
C      -0.37276500     -0.90286000     -0.65770200
H      -0.27160200     -1.84764300     -0.11996800
H      -0.77395300     -0.98627400     -1.66830900
C      -0.72408500      0.33719900      0.09597300
H      -1.45379700      1.09677400     -0.13533100
C       0.64905200      0.17636200     -0.45126200
H       1.18457400      0.77211100     -1.17291300
C       0.44532900      0.39077000      1.01225200
H       0.62933100     -0.42588600      1.70974300
H       0.71485600      1.37340100      1.39556200
          10
 Point    5
C      -0.36557000     -0.89987600     -0.66054800
H      -0.26293300     -1.84514000     -0.11800900
H      -0.76695400     -0.99482300     -1.66726200
C      -0.72636800      0.34068400      0.09339400
H      -1.44992100      1.10347900     -0.13990400
C       0.63977500      0.16919600     -0.44933200
H       1.15627300      0.77342700     -1.17778300
C       0.45012300      0.39272300      1.01638100
H       0.61954800     -0.43156700      1.70921200
H       0.72828400      1.36214800      1.39499800
          10
 Point    6
C      -0.36734000     -0.90345000     -0.65513800
H      -0.25445300     -1.83350100     -0.11388400
H      -0.76987500     -1.01050300     -1.65433400
C      -0.72609200      0.34293400      0.08980000
H      -1.45073100      1.10457800     -0.14023100
C       0.64324300      0.17759000     -0.44935900
H       1.15461000      0.78170700     -1.17998100
C       0.44646400      0.38599500      1.01378600
H       0.60973600     -0.44510200      1.70001600
H       0.75506100      1.36628700      1.39924600
          10
 Point    7
C      -0.36701900     -0.90484700     -0.64883100
H      -0.26397000     -1.83826100     -0.08401600
H      -0.76934200     -1.01816500     -1.65539900
C      -0.72326400      0.34615600      0.08508000
H      -1.45865900      1.10299100     -0.13759600
C       0.64158900      0.18469500     -0.45318600
H       1.16594000      0.78422200     -1.17867300
C       0.44751200      0.38092200      1.01283600
H       0.60866700     -0.45767000      1.69043200
H       0.73144400      1.34442400      1.41406500
          10
 Point    8
C      -0.36435700     -0.90285800     -0.64409800
H      -0.24869800     -1.81802300     -0.06709800
H      -0.77245900     -1.04021400     -1.63961900
C      -0.72265600      0.35134700      0.08195900
H      -1.47732200      1.09452100     -0.12340200
C       0.64012000      0.18688100     -0.45927500
H       1.18744600      0.76961900     -1.18282300
C       0.44541700      0.37590000      1.01319300
H       0.60331000     -0.47733100      1.67384300
H       0.72529900      1.33724600      1.43699600
          10
 Point    9
C      -0.36847600     -0.90688600     -0.63641600
H      -0.25325400     -1.81702400     -0.05532900
H      -0.77798300     -1.04942900     -1.63199000
C      -0.71801300      0.35323600      0.07191200
H      -1.48469000      1.08802000     -0.11635000
C       0.64022600      0.19657200     -0.45787900
H       1.19480200      0.78850500     -1.18645400
C       0.44638000      0.36992900      1.01228000
H       0.60370800     -0.48933400      1.66480300
H       0.71602500      1.32625000      1.44560800
          10
 Point   10
C      -0.37168600     -0.90817400     -0.63364700
H      -0.25712800     -1.82110700     -0.03473500
H      -0.77884400     -1.05868200     -1.63002600
C      -0.71627100      0.35322700      0.06804300
H      -1.49561300      1.07974200     -0.10081100
C       0.64311000      0.20694500     -0.46201200
H       1.20587800      0.75085000     -1.17152700
C       0.44605400      0.36665500      1.01251600
H       0.60588200     -0.49865400      1.65620200
H       0.70544200      1.32574200      1.46070200
          10
 Point   11
C      -0.37916100     -0.91175500     -0.63000100
H      -0.24902400     -1.81221300     -0.03560400
H      -0.79205100     -1.07343300     -1.62014700
C      -0.71241700      0.35301000      0.06060600
H      -1.50318900      1.07040200     -0.08748400
C       0.64468700      0.21448500     -0.46015600
H       1.24114200      0.75796500     -1.18507500
C       0.44770100      0.36485100      1.01309800
H       0.61363900     -0.50620900      1.64782300
H       0.67983600      1.31831700      1.47638100
          10
 Point   12
C      -0.38812000     -0.91657800     -0.62734400
H      -0.25023900     -1.81577200     -0.02590600
H      -0.79927100     -1.08316300     -1.61793000
C      -0.70889200      0.35064700      0.05387700
H      -1.50804200      1.06216000     -0.07705100
C       0.64888300      0.22800000     -0.45944900
H       1.26039300      0.73849300     -1.18410400
C       0.44927200      0.36271300      1.01393500
H       0.61936600     -0.51231100      1.64179600
H       0.66418400      1.31552000      1.48920500
          10
 Point   13
C      -0.39814100     -0.92209300     -0.62510200
H      -0.24732900     -1.81701900     -0.02250400
H      -0.80911700     -1.09301400     -1.61494500
C      -0.70530500      0.34787200      0.04745300
H      -1.51054400      1.05509800     -0.06960500
C       0.65337000      0.24114600     -0.45736400
H       1.28279400      0.72472900     -1.18875100
C       0.45100900      0.36118800      1.01473000
H       0.62514800     -0.51685500      1.63711800
H       0.64793200      1.31231400      1.50019800
          10
 Point   14
C      -0.40831800     -0.92775700     -0.62341900
H      -0.24369000     -1.81942700     -0.01959500
H      -0.81890800     -1.10191200     -1.61297400
C      -0.70195900      0.34471900      0.04175100
H      -1.51185100      1.04880400     -0.06405500
C       0.65825800      0.25476300     -0.45508000
H       1.30299800      0.70645700     -1.19262300
C       0.45265000      0.35993000      1.01542700
H       0.63039000     -0.52054900      1.63323600
H       0.63354900      1.30972100      1.50985900
          10
 Point   15
C      -0.41858600     -0.93348800     -0.62205200
H      -0.23834700     -1.82155200     -0.01837900
H      -0.82936700     -1.11041300     -1.61108100
C      -0.69874000      0.34137100      0.03653900
H      -1.51224600      1.04307700     -0.06015200
C       0.66326900      0.26843100     -0.45247400
H       1.32285400      0.68630200     -1.19723500
C       0.45420900      0.35887600      1.01602100
H       0.63529200     -0.52363200      1.62991800
H       0.62000700      1.30720800      1.51846100
          10
 Point   16
C      -0.42881200     -0.93917300     -0.62094000
H      -0.23175700     -1.82367900     -0.01810100
H      -0.84018600     -1.11847200     -1.60935400
C      -0.69564300      0.33785900      0.03176500
H      -1.51201700      1.03778600     -0.05756400
C       0.66837800      0.28220800     -0.44973400
H       1.34160100      0.66339000     -1.20152900
C       0.45566700      0.35794100      1.01651300
H       0.63983700     -0.52628100      1.62702600
H       0.60740900      1.30485700      1.52618600
          10
 Point   17
C      -0.43895600     -0.94476900     -0.62000500
H      -0.22388300     -1.82550700     -0.01891500
H      -0.85149400     -1.12622200     -1.60757200
C      -0.69264000      0.33422300      0.02734500
H      -1.51129400      1.03284200     -0.05612400
C       0.67351900      0.29600400     -0.44687200
H       1.35949700      0.63821800     -1.20560900
C       0.45703500      0.35709600      1.01690600
H       0.64410200     -0.52859000      1.62447400
H       0.59547300      1.30256800      1.53315900
          10
 Point   18
C      -0.44897200     -0.95023500     -0.61921200
H      -0.21492700     -1.82708200     -0.02060500
H      -0.86322500     -1.13368300     -1.60572300
C      -0.68972400      0.33047600      0.02323500
H      -1.51019300      1.02818300     -0.05566000
C       0.67869100      0.30981500     -0.44395800
H       1.37622100      0.61071000     -1.20905500
C       0.45831500      0.35631500      1.01720500
H       0.64811500     -0.53062600      1.62219900
H       0.58413800      1.30036300      1.53948300
          10
 Point   19
C      -0.45885100     -0.95555700     -0.61852300
H      -0.20498100     -1.82829900     -0.02320100
H      -0.87544500     -1.14092700     -1.60370400
C      -0.68688500      0.32663200      0.01938700
H      -1.50877900      1.02375500     -0.05605800
C       0.68388400      0.32360300     -0.44100900
H       1.39181500      0.58123500     -1.21177200
C       0.45951800      0.35558400      1.01741400
H       0.65193400     -0.53243300      1.62015100
H       0.57324400      1.29821200      1.54523500
          10
 Point   20
C      -0.46858300     -0.96072500     -0.61791600
H      -0.19421800     -1.82917600     -0.02661000
H      -0.88815000     -1.14798600     -1.60148600
C      -0.68411700      0.32269300      0.01576400
H      -1.50710800      1.01951500     -0.05720000
C       0.68911000      0.33735700     -0.43806500
H       1.40614400      0.54997200     -1.21344700
C       0.46065100      0.35489400      1.01753900
H       0.65559700     -0.53404100      1.61829000
H       0.56271700      1.29612000      1.55048000
          10
 Point   21
C      -0.47816600     -0.96573400     -0.61737000
H      -0.18276100     -1.82967600     -0.03084700
H      -0.90139100     -1.15491100     -1.59900500
C      -0.68141800      0.31866600      0.01233300
H      -1.50521400      1.01543000     -0.05899500
C       0.69437500      0.35105600     -0.43514300
H       1.41923800      0.51721000     -1.21394700
C       0.46172600      0.35424400      1.01758300
H       0.65915300     -0.53547000      1.61658300
H       0.55244600      1.29407200      1.55526900
          10
 Point   22
C      -0.48759800     -0.97058400     -0.61687400
H      -0.17075500     -1.82983400     -0.03585700
H      -0.91519000     -1.16173400     -1.59623300
C      -0.67878800      0.31455000      0.00907000
H      -1.50312900      1.01147200     -0.06135100
C       0.69969700      0.36468700     -0.43226500
H       1.43099000      0.48314600     -1.21310300
C       0.46275000      0.35363000      1.01755200
H       0.66264300     -0.53673400      1.61499700
H       0.54235300      1.29207400      1.55965500
          10
 Point   23
C      -0.49689400     -0.97528100     -0.61641700
H      -0.15830500     -1.82965000     -0.04165200
H      -0.92962900     -1.16851400     -1.59310800
C      -0.67622700      0.31034700      0.00594700
H      -1.50086900      1.00761100     -0.06419900
C       0.70510000      0.37823600     -0.42943100
H       1.44141300      0.44815500     -1.21088800
C       0.46373300      0.35305700      1.01744800
H       0.66611700     -0.53784000      1.61350200
H       0.53232500      1.29011500      1.56367900
          10
 Point   24
C      -0.50606500     -0.97983500     -0.61599200
H      -0.14553100     -1.82915700     -0.04820800
H      -0.94476200     -1.17529600     -1.58958600
C      -0.67373600      0.30605500      0.00293700
H      -1.49845400      1.00382200     -0.06746200
C       0.71060800      0.39169000     -0.42664900
H       1.45050900      0.41254000     -1.20716000
C       0.46468700      0.35252800      1.01727600
H       0.66961700     -0.53879100      1.61207200
H       0.52227600      1.28818900      1.56738000
          10
 Point   25
C      -0.51512600     -0.98425600     -0.61559300
H      -0.13252700     -1.82836400     -0.05553800
H      -0.96065100     -1.18212500     -1.58560500
C      -0.67131700      0.30167400      0.00001700
H      -1.49589500      1.00008600     -0.07107000
C       0.71623300      0.40503500     -0.42392400
H       1.45838500      0.37661900     -1.20182100
C       0.46562300      0.35204900      1.01703900
H       0.67318900     -0.53958800      1.61068200
H       0.51211100      1.28628400      1.57079100
          10
 Point   26
C      -0.52409100     -0.98855300     -0.61521800
H      -0.11939500     -1.82731500     -0.06361500
H      -0.97734900     -1.18904000     -1.58112900
C      -0.66897300      0.29720200     -0.00283500
H      -1.49320300      0.99639000     -0.07495200
C       0.72199800      0.41825900     -0.42125600
H       1.46505500      0.34068400     -1.19483000
C       0.46655300      0.35162700      1.01674000
H       0.67687600     -0.54022800      1.60931000
H       0.50174700      1.28439800      1.57394800
          10
 Point   27
C      -0.53298700     -0.99274300     -0.61486600
H      -0.10622100     -1.82602400     -0.07245200
H      -0.99494400     -1.19609400     -1.57608900
C      -0.66670100      0.29263400     -0.00564900
H      -1.49038300      0.99271400     -0.07905600
C       0.72792700      0.43134800     -0.41861900
H       1.47061200      0.30514200     -1.18630900
C       0.46749000      0.35127200      1.01638100
H       0.68072300     -0.54070500      1.60793500
H       0.49108000      1.28251400      1.57688400
          10
 Point   28
C      -0.54183500     -0.99684200     -0.61453500
H      -0.09310600     -1.82452400     -0.08203900
H      -1.01348700     -1.20332400     -1.57042500
C      -0.66449800      0.28797200     -0.00845200
H      -1.48744400      0.98904400     -0.08332000
C       0.73403000      0.44428800     -0.41600100
H       1.47515800      0.27031100     -1.17626100
C       0.46844700      0.35099300      1.01596600
H       0.68476900     -0.54101000      1.60654400
H       0.48002700      1.28061700      1.57962200
          10
 Point   29
C      -0.55065500     -1.00086700     -0.61422500
H      -0.08014300     -1.82284700     -0.09237900
H      -1.03300900     -1.21075600     -1.56407900
C      -0.66235800      0.28321700     -0.01127400
H      -1.48439500      0.98537200     -0.08768400
C       0.74031000      0.45706500     -0.41338800
H       1.47885300      0.23652400     -1.16468400
C       0.46944000      0.35079900      1.01549700
H       0.68904400     -0.54113600      1.60512900
H       0.46851700      1.27868700      1.58218600
          10
 Point   30
C      -0.55947500     -1.00483400     -0.61393200
H      -0.06741400     -1.82104600     -0.10345600
H      -1.05352200     -1.21840800     -1.55701500
C      -0.66027300      0.27836500     -0.01414700
H      -1.48124600      0.98168800     -0.09209100
C       0.74677100      0.46966900     -0.41075500
H       1.48178800      0.20412000     -1.15168800
C       0.47048500      0.35069800      1.01497900
H       0.69357400     -0.54107700      1.60368200
H       0.45649500      1.27670600      1.58460800
          10
 Point   31
C      -0.56832300     -1.00876300     -0.61365100
H      -0.05497200     -1.81915100     -0.11529000
H      -1.07504600     -1.22630600     -1.54916700
C      -0.65823000      0.27342100     -0.01711200
H      -1.47800700      0.97798500     -0.09649600
C       0.75341100      0.48208300     -0.40805600
H       1.48410500      0.17344800     -1.13756300
C       0.47160100      0.35070000      1.01441400
H       0.69837900     -0.54082300      1.60220600
H       0.44388900      1.27464500      1.58690800
          10
 Point   32
C      -0.57721200     -1.01267000     -0.61337500
H      -0.04287400     -1.81718700     -0.12788800
H      -1.09753800     -1.23445200     -1.54048800
C      -0.65621800      0.26839800     -0.02020800
H      -1.47469600      0.97426100     -0.10084400
C       0.76021000      0.49429000     -0.40526200
H       1.48592500      0.14471500     -1.12246600
C       0.47280500      0.35081100      1.01380700
H       0.70346700     -0.54037200      1.60070400
H       0.43065100      1.27247200      1.58910900
          10
 Point   33
C      -0.58615500     -1.01657100     -0.61309800
H      -0.03118400     -1.81517600     -0.14123500
H      -1.12093300     -1.24284700     -1.53094500
C      -0.65422200      0.26331300     -0.02347400
H      -1.47133600      0.97051600     -0.10508000
C       0.76713800      0.50627700     -0.40234900
H       1.48740300      0.11812500     -1.10650800
C       0.47411700      0.35103600      1.01316600
H       0.70884300     -0.53972300      1.59918600
H       0.41674600      1.27014800      1.59123700
          10
 Point   34
C      -0.59516600     -1.02048600     -0.61281100
H      -0.01997600     -1.81313800     -0.15528900
H      -1.14516100     -1.25148900     -1.52052000
C      -0.65222800      0.25817800     -0.02695600
H      -1.46794900      0.96674600     -0.10915300
C       0.77416600      0.51803000     -0.39928400
H       1.48866200      0.09391100     -1.08989300
C       0.47556000      0.35137800      1.01250100
H       0.71451000     -0.53888200      1.59765700
H       0.40214000      1.26763200      1.59332200
          10
 Point   35
C      -0.60425500     -1.02443100     -0.61250600
H      -0.00931500     -1.81109500     -0.17000300
H      -1.17016200     -1.26037800     -1.50917800
C      -0.65022000      0.25301400     -0.03070100
H      -1.46455900      0.96295100     -0.11302100
C       0.78125900      0.52953800     -0.39602700
H       1.48985300      0.07225100     -1.07292100
C       0.47715600      0.35183700      1.01182200
H       0.72046800     -0.53785300      1.59613000
H       0.38680700      1.26487400      1.59538400
          10
 Point   36
C      -0.61341200     -1.02841100     -0.61217400
H       0.00075000     -1.80906900     -0.18534500
H      -1.19585600     -1.26950400     -1.49687800
C      -0.64818400      0.24784800     -0.03475100
H      -1.46119300      0.95913500     -0.11664200
C       0.78836400      0.54078300     -0.39255100
H       1.49106700      0.05315100     -1.05584900
C       0.47892600      0.35241500      1.01114400
H       0.72670700     -0.53664600      1.59461800
H       0.37073300      1.26181000      1.59743900
          10
 Point   37
C      -0.62261000     -1.03242600     -0.61180600
H       0.01019900     -1.80708900     -0.20129300
H      -1.22215200     -1.27885300     -1.48357700
C      -0.64610600      0.24271800     -0.03914200
H      -1.45788500      0.95530200     -0.11997100
C       0.79541900      0.55174900     -0.38884900
H       1.49233600      0.03648700     -1.03879500
C       0.48088500      0.35310700      1.01048600
H       0.73321600     -0.53527600      1.59313400
H       0.35392800      1.25838300      1.59950700
          10
 Point   38
C      -0.63182900     -1.03647700     -0.61139400
H       0.01902900     -1.80516800     -0.21783600
H      -1.24895200     -1.28841100     -1.46925500
C      -0.64396700      0.23766200     -0.04391000
H      -1.45466000      0.95145700     -0.12296600
C       0.80236100      0.56241800     -0.38491600
H       1.49370700      0.02218700     -1.02188000
C       0.48305000      0.35390700      1.00987200
H       0.73999200     -0.53376100      1.59169100
H       0.33639900      1.25452300      1.60160100
          10
 Point   39
C      -0.64105300     -1.04057300     -0.61093300
H       0.02721300     -1.80331800     -0.23495000
H      -1.27614300     -1.29816000     -1.45388300
C      -0.64174700      0.23271700     -0.04909700
H      -1.45153700      0.94760600     -0.12560000
C       0.80912700      0.57277700     -0.38073700
H       1.49523800      0.01021800     -1.00527800
C       0.48543100      0.35480700      1.00932900
H       0.74704000     -0.53211700      1.59030800
H       0.31818700      1.25018800      1.60372800
          10
 Point   40
C      -0.65026700     -1.04471800     -0.61041700
H       0.03468800     -1.80157900     -0.25253400
H      -1.30359200     -1.30807600     -1.43750300
C      -0.63942600      0.22791900     -0.05473900
H      -1.44852700      0.94375700     -0.12785200
C       0.81565600      0.58281800     -0.37630500
H       1.49698100      0.00052100     -0.98913000
C       0.48803900      0.35579600      1.00888600
H       0.75439600     -0.53035200      1.58900000
H       0.29933200      1.24530400      1.60587700
          10
 Point   41
C      -0.65944200     -1.04891600     -0.60985100
H       0.04140000     -1.79997500     -0.27049800
H      -1.33120300     -1.31814900     -1.42006100
C      -0.63698500      0.22330300     -0.06087600
H      -1.44564100      0.93991600     -0.12970300
C       0.82188300      0.59253100     -0.37161100
H       1.49896600     -0.00697400     -0.97360700
C       0.49087900      0.35686200      1.00857900
H       0.76205000     -0.52849900      1.58779200
H       0.27994200      1.23985400      1.60803200
          10
 Point   42
C      -0.66854600     -1.05317000     -0.60922600
H       0.04727400     -1.79863000     -0.28870900
H      -1.35887900     -1.32830800     -1.40170600
C      -0.63440100      0.21891000     -0.06752700
H      -1.44285200      0.93611500     -0.13116500
C       0.82773200      0.60190300     -0.36667100
H       1.50122800     -0.01230800     -0.95875700
C       0.49394400      0.35798900      1.00844000
H       0.77016700     -0.52651800      1.58667700
H       0.26005700      1.23377200      1.61022800
          10
 Point   43
C      -0.67736800     -1.05742800     -0.60849800
H       0.05240500     -1.79745600     -0.30787600
H      -1.38667300     -1.33850000     -1.38126500
C      -0.63156200      0.21486200     -0.07490300
H      -1.43987100      0.93264100     -0.13222800
C       0.83290700      0.61079700     -0.36149300
H       1.50333100     -0.01527100     -0.94534000
C       0.49729500      0.35910800      1.00869900
H       0.77824000     -0.52470000      1.58582300
H       0.23929000      1.22708400      1.61184000
          10
 Point   44  This is TS structure
C       0.42821200      0.34005000      0.00000000
H       1.17068300     -0.39499400      0.28077900
H      -0.29965600      0.05335300     -0.75252200
C       0.48582900      1.61287000      0.52481800
H      -0.32290800      2.33063400      0.47493700
C       1.95198700      2.02095100      0.25162800
H       2.62055000      1.38493500     -0.32428200
C       1.61543600      1.76213600      1.61686500
H       1.90199000      0.87930500      2.19281200
H       1.33276800      2.62082000      2.22184700
          10
 Point   45
C      -0.69505200     -1.06595700     -0.60694000
H       0.06011700     -1.79601700     -0.34600300
H      -1.44148300     -1.35828000     -1.33921600
C      -0.62562400      0.20739200     -0.09089800
H      -1.43478800      0.92514200     -0.13333500
C       0.84222300      0.62761900     -0.35068900
H       1.50892600     -0.01834500     -0.91866100
C       0.50473400      0.36167800      1.00959400
H       0.79689600     -0.52017500      1.58436400
H       0.19740200      1.21107000      1.61641600
          10
 Point   46
C      -0.70382100     -1.07017700     -0.60613800
H       0.06259400     -1.79577400     -0.36465700
H      -1.46823700     -1.36783500     -1.31779200
C      -0.62256900      0.20400600     -0.09944600
H      -1.43268000      0.92119300     -0.13346100
C       0.84635000      0.63549400     -0.34510400
H       1.51242400     -0.01852900     -0.90540900
C       0.50875700      0.36309300      1.01022300
H       0.80742700     -0.51752200      1.58372000
H       0.17653500      1.20180200      1.61941500
          10
 Point   47
C      -0.71222100     -1.07434500     -0.60523300
H       0.06432400     -1.79583500     -0.38396200
H      -1.49458800     -1.37715000     -1.29478500
C      -0.61923100      0.20105000     -0.10871400
H      -1.43027200      0.91764400     -0.13337600
C       0.84958700      0.64276700     -0.33940600
H       1.51578100     -0.01664400     -0.89357300
C       0.51304000      0.36448500      1.01139200
H       0.81844500     -0.51483300      1.58344200
H       0.15512000      1.19181600      1.62187800
          10
 Point   48
C      -0.72037600     -1.07844000     -0.60426200
H       0.06551200     -1.79599700     -0.40340900
H      -1.52024200     -1.38626700     -1.27094700
C      -0.61579000      0.19841800     -0.11853400
H      -1.42789800      0.91419100     -0.13318100
C       0.85215400      0.64959700     -0.33362100
H       1.51915900     -0.01392000     -0.88230000
C       0.51755700      0.36588600      1.01291800
H       0.83021500     -0.51195400      1.58344600
H       0.13383800      1.18103800      1.62433500
          10
 Point   49
C      -0.72825700     -1.08242200     -0.60325800
H       0.06599100     -1.79637600     -0.42285000
H      -1.54526900     -1.39513300     -1.24630200
C      -0.61228400      0.19610200     -0.12884600
H      -1.42555300      0.91084500     -0.13294200
C       0.85406400      0.65591000     -0.32778700
H       1.52267300     -0.01019800     -0.87160900
C       0.52230000      0.36731500      1.01480400
H       0.84292700     -0.50874600      1.58377600
H       0.11268900      1.16951200      1.62677400
          10
 Point   50
C      -0.73588400     -1.08627600     -0.60223000
H       0.06579400     -1.79697100     -0.44219300
H      -1.56941500     -1.40358700     -1.22113600
C      -0.60876600      0.19406400     -0.13960600
H      -1.42322300      0.90761800     -0.13277600
C       0.85533300      0.66170800     -0.32193000
H       1.52628900     -0.00572900     -0.86141300
C       0.52729200      0.36879000      1.01705600
H       0.85668400     -0.50510500      1.58448900
H       0.09171600      1.15723400      1.62919400
          10
 Point   51
C      -0.74323200     -1.08997300     -0.60121400
H       0.06485000     -1.79780500     -0.46128900
H      -1.59262200     -1.41153000     -1.19563700
C      -0.60530500      0.19227900     -0.15077600
H      -1.42092400      0.90453100     -0.13279700
C       0.85596400      0.66694300     -0.31606000
H       1.53003700     -0.00052000     -0.85170000
C       0.53255900      0.37034000      1.01968800
H       0.87161700     -0.50090400      1.58565700
H       0.07093700      1.14417300      1.63159300
          10
 Point   52
C      -0.75031300     -1.09349700     -0.60023900
H       0.06329700     -1.79883400     -0.48014800
H      -1.61469700     -1.41887400     -1.17012100
C      -0.60198000      0.19071200     -0.16231200
H      -1.41869000      0.90159500     -0.13313200
C       0.85597900      0.67158500     -0.31017600
H       1.53390700      0.00531600     -0.84243600
C       0.53812900      0.37199100      1.02271600
H       0.88784300     -0.49598900      1.58739000
H       0.05045800      1.13040600      1.63391400
          10
 Point   53
C      -0.75709100     -1.09681200     -0.59937400
H       0.06110600     -1.80001300     -0.49867000
H      -1.63569100     -1.42567000     -1.14471700
C      -0.59889000      0.18933500     -0.17416600
H      -1.41658900      0.89882000     -0.13387600
C       0.85539400      0.67557800     -0.30427100
H       1.53789500      0.01175500     -0.83364200
C       0.54403200      0.37376700      1.02616000
H       0.90548600     -0.49017700      1.58982500
H       0.03049400      1.11607300      1.63608000
          10
 Point   54
C      -0.76359100     -1.09990500     -0.59865800
H       0.05847300     -1.80125800     -0.51689300
H      -1.65536100     -1.43187000     -1.11976600
C      -0.59614100      0.18811700     -0.18627800
H      -1.41470500      0.89621500     -0.13512700
C       0.85424300      0.67886700     -0.29833600
H       1.54195600      0.01870200     -0.82534700
C       0.55032100      0.37571000      1.03002100
H       0.92464300     -0.48327200      1.59309400
H       0.01118100      1.10132900      1.63809400
          10
 Point   55
C      -0.76973100     -1.10272200     -0.59819400
H       0.05529700     -1.80250800     -0.53452700
H      -1.67386400     -1.43760900     -1.09533400
C      -0.59386100      0.18703100     -0.19857000
H      -1.41314000      0.89380000     -0.13695900
C       0.85254200      0.68137300     -0.29237000
H       1.54605200      0.02612100     -0.81763100
C       0.55703500      0.37785200      1.03430800
H       0.94539300     -0.47507500      1.59732200
H      -0.00728100      1.08623600      1.63993600
          10
 Point   56
C      -0.77557700     -1.10526500     -0.59799200
H       0.05196600     -1.80367500     -0.55160000
H      -1.69061200     -1.44275500     -1.07209300
C      -0.59215200      0.18605900     -0.21094700
H      -1.41199100      0.89160000     -0.13944000
C       0.85033600      0.68304100     -0.28636800
H       1.55009100      0.03390700     -0.81056900
C       0.56424700      0.38024000      1.03899300
H       0.96774200     -0.46541400      1.60259400
H      -0.02508400      1.07086300      1.64162700
          10
 Point   57
C      -0.78094200     -1.10745200     -0.59819300
H       0.04819200     -1.80469800     -0.56751200
H      -1.70633300     -1.44769500     -1.04980200
C      -0.59113900      0.18518600     -0.22332500
H      -1.41137100      0.88962900     -0.14267400
C       0.84764800      0.68380700     -0.28032500
H       1.55405900      0.04211100     -0.80429500
C       0.57191000      0.38286700      1.04408800
H       0.99165100     -0.45412500      1.60901200
H      -0.04149700      1.05533600      1.64295300
          10
 Point   58
C      -0.78609400     -1.10936600     -0.59864600
H       0.04475200     -1.80554100     -0.58259500
H      -1.71943000     -1.45189000     -1.02983500
C      -0.59082400      0.18440800     -0.23559700
H      -1.41131800      0.88793700     -0.14662700
C       0.84456600      0.68367700     -0.27425700
H       1.55778900      0.05055500     -0.79889500
C       0.58013400      0.38576300      1.04947800
H       1.01691100     -0.44118600      1.61649100
H      -0.05763100      1.03980100      1.64422400
          10
 Point   59
C      -0.79051400     -1.11083600     -0.59964300
H       0.04076400     -1.80611700     -0.59586600
H      -1.73296200     -1.45647900     -1.01027800
C      -0.59130500      0.18371200     -0.24770100
H      -1.41190100      0.88645800     -0.15153500
C       0.84113400      0.68264800     -0.26815400
H       1.56144100      0.05945500     -0.79444100
C       0.58855400      0.38883300      1.05522100
H       1.04340300     -0.42645500      1.62508400
H      -0.07070900      1.02430600      1.64474400
          10
 Point   60
C      -0.79514800     -1.11217200     -0.60060100
H       0.03778300     -1.80660400     -0.60843300
H      -1.74125400     -1.45945800     -0.99491900
C      -0.59233200      0.18311100     -0.25949600
H      -1.41298600      0.88536500     -0.15686800
C       0.83749300      0.68085600     -0.26210800
H       1.56459800      0.06833200     -0.79092600
C       0.59766900      0.39214700      1.06096300
H       1.07062100     -0.41033300      1.63423800
H      -0.08650000      1.00880300      1.64609900
          10
 Point   61
C      -0.79843100     -1.11291000     -0.60238200
H       0.03376100     -1.80667700     -0.61889000
H      -1.75524200     -1.46459900     -0.97693200
C      -0.59408600      0.18256700     -0.27101600
H      -1.41461000      0.88428800     -0.16363600
C       0.83367300      0.67833200     -0.25601600
H       1.56808000      0.07803900     -0.78821500
C       0.60610300      0.39546200      1.06709900
H       1.09896600     -0.39215500      1.64446800
H      -0.09367000      0.99306400      1.64518700
          10
 Point   62
C      -0.80294700     -1.11384300     -0.60351000
H       0.03125600     -1.80704400     -0.62887100
H      -1.75699000     -1.46573700     -0.96662100
C      -0.59595700      0.18212000     -0.28198500
H      -1.41650800      0.88384800     -0.16989000
C       0.82985400      0.67535100     -0.25017200
H       1.57062100      0.08722400     -0.78637300
C       0.61590000      0.39894600      1.07263600
H       1.12683800     -0.37346600      1.65421200
H      -0.11305700      0.97757500      1.64803800
          10
 Point   63
C      -0.80533900     -1.11399300     -0.60573200
H       0.02758600     -1.80686300     -0.63768100
H      -1.77250100     -1.47156200     -0.94995600
C      -0.59839700      0.18171200     -0.29270500
H      -1.41863400      0.88313800     -0.17831000
C       0.82600000      0.67180400     -0.24424200
H       1.57412500      0.09786500     -0.78502700
C       0.62360000      0.40230700      1.07886100
H       1.15692000     -0.35188000      1.66543600
H      -0.11358500      0.96055500      1.64539900
          10
 Point   64
C      -0.80936900     -1.11460000     -0.60731000
H       0.02478700     -1.80685700     -0.64502500
H      -1.77336500     -1.47277700     -0.94078000
C      -0.60082900      0.18134400     -0.30326400
H      -1.42109300      0.88302700     -0.18552200
C       0.82197900      0.66801600     -0.23831700
H       1.57640800      0.10796700     -0.78439500
C       0.63363400      0.40584900      1.08437200
H       1.18401100     -0.33085900      1.67505000
H      -0.13149500      0.94528600      1.64889800
          10
 Point   65
C      -0.81217300     -1.11468800     -0.60948800
H       0.02210700     -1.80684100     -0.65242500
H      -1.78263500     -1.47688500     -0.92857000
C      -0.60367600      0.18101500     -0.31385400
H      -1.42358200      0.88270500     -0.19413300
C       0.81788000      0.66368700     -0.23230700
H       1.57897300      0.11913400     -0.78418900
C       0.64206700      0.40951200      1.09060600
H       1.21409500     -0.30776000      1.68583800
H      -0.13402000      0.92833600      1.64793800
          10
 Point   66
C      -0.81529200     -1.11487300     -0.61163000
H       0.01891900     -1.80645800     -0.65773800
H      -1.78735200     -1.47971000     -0.91901800
C      -0.60664700      0.18072700     -0.32431300
H      -1.42629000      0.88264100     -0.20232900
C       0.81362300      0.65910300     -0.22626600
H       1.58084000      0.13012800     -0.78452900
C       0.65175600      0.41327200      1.09654000
H       1.24122000     -0.28446100      1.69526800
H      -0.14457400      0.91199400      1.65026600
          10
 Point   67
C      -0.81827600     -1.11491100     -0.61387900
H       0.01670900     -1.80657200     -0.66359400
H      -1.79259400     -1.48268800     -0.90964100
C      -0.60971500      0.18052800     -0.33457800
H      -1.42906700      0.88256300     -0.21134500
C       0.80940600      0.65418900     -0.22026700
H       1.58270800      0.14176500     -0.78501900
C       0.66056900      0.41706900      1.10262700
H       1.27093900     -0.25976300      1.70553900
H      -0.14858800      0.89495000      1.65106300
          10
 Point   68
C      -0.82101800     -1.11486600     -0.61629200
H       0.01345300     -1.80616000     -0.66765000
H      -1.79816700     -1.48599200     -0.90060800
C      -0.61282900      0.18035700     -0.34466200
H      -1.43192300      0.88270400     -0.22034500
C       0.80511300      0.64905500     -0.21429600
H       1.58416600      0.15355100     -0.78595300
C       0.66989100      0.42087200      1.10859900
H       1.29822100     -0.23412900      1.71457600
H      -0.15580100      0.87763700      1.65358200
          10
 Point   69
C      -0.82396000     -1.11482800     -0.61868300
H       0.01126400     -1.80631800     -0.67233800
H      -1.80212700     -1.48862800     -0.89245600
C      -0.61590700      0.18027200     -0.35454900
H      -1.43475000      0.88286800     -0.22990500
C       0.80085400      0.64369900     -0.20835100
H       1.58559400      0.16591500     -0.78687800
C       0.67861900      0.42469100      1.11456300
H       1.32756400     -0.20734800      1.72413400
H      -0.15912500      0.85996800      1.65545500
          10
 Point   70
C      -0.82660200     -1.11469300     -0.62126000
H       0.00807100     -1.80599600     -0.67554200
H      -1.80743600     -1.49190900     -0.88416000
C      -0.61898100      0.18020000     -0.36428400
H      -1.43756800      0.88321100     -0.23953800
C       0.79654100      0.63816100     -0.20243900
H       1.58666300      0.17855500     -0.78814000
C       0.68766300      0.42851000      1.12048500
H       1.35462700     -0.17957200      1.73239700
H      -0.16420200      0.84189000      1.65867300
          10
 Point   71
C      -0.82948700     -1.11460800     -0.62381100
H       0.00571800     -1.80617900     -0.67915300
H      -1.81096300     -1.49442200     -0.87683600
C      -0.62197200      0.18019800     -0.37383300
H      -1.44030200      0.88359800     -0.24959500
C       0.79225900      0.63245700     -0.19655200
H       1.58762900      0.19175100     -0.78933900
C       0.69621800      0.43233400      1.12636800
H       1.38335700     -0.15075000      1.74095600
H      -0.16620600      0.82358500      1.66159600
          10
 Point   72
C      -0.83214500     -1.11445500     -0.62652300
H       0.00259400     -1.80602800     -0.68160800
H      -1.81581500     -1.49751500     -0.86938500
C      -0.62492200      0.18020000     -0.38323500
H      -1.44297200      0.88414200     -0.25981300
C       0.78794800      0.62661000     -0.19070000
H       1.58827800      0.20529000     -0.79075400
C       0.70500600      0.43616300      1.13222700
H       1.41000200     -0.12095800      1.74821700
H      -0.16938200      0.80482800      1.66575400
          10
 Point   73
C      -0.83502400     -1.11436900     -0.62923200
H       0.00001800     -1.80627400     -0.68420500
H      -1.81918100     -1.49992400     -0.86289900
C      -0.62776400      0.18025000     -0.39244200
H      -1.44552500      0.88476400     -0.27041000
C       0.78367500      0.62064300     -0.18487800
H       1.58875600      0.21937600     -0.79206200
C       0.71336400      0.43998000      1.13803100
H       1.43799400     -0.09013000      1.75562200
H      -0.16988200      0.78592000      1.66982400
          10
 Point   74
C      -0.83776100     -1.11424700     -0.63207700
H      -0.00312500     -1.80632900     -0.68590200
H      -1.82366700     -1.50277900     -0.85641000
C      -0.63053800      0.18029000     -0.40149800
H      -1.44796300      0.88553200     -0.28127600
C       0.77939300      0.61457200     -0.17908800
H       1.58895400      0.23386600     -0.79348000
C       0.72191800      0.44381300      1.14381500
H       1.46397800     -0.05839300      1.76172500
H      -0.17124600      0.76656200      1.67510600
          10
 Point   75
C      -0.84070300     -1.11420200     -0.63494200
H      -0.00594700     -1.80670700     -0.68754600
H      -1.82695200     -1.50502800     -0.85091400
C      -0.63318900      0.18034900     -0.41034800
H      -1.45025400      0.88641000     -0.29253200
C       0.77516300      0.60842200     -0.17332800
H       1.58891900      0.24891100     -0.79473400
C       0.73007900      0.44762000      1.14953800
H       1.49105100     -0.02562600      1.76784000
H      -0.17008800      0.74715700      1.68040800
          10
 Point   76
C      -0.84356800     -1.11414500     -0.63792700
H      -0.00922900     -1.80699800     -0.68842700
H      -1.83123100     -1.50761700     -0.84554400
C      -0.63575500      0.18037600     -0.41903800
H      -1.45237700      0.88743400     -0.30416400
C       0.77094100      0.60220700     -0.16759400
H       1.58864200      0.26441200     -0.79601300
C       0.73843300      0.45145300      1.15523900
H       1.51605600      0.00795300      1.77258900
H      -0.16967000      0.72730600      1.68693800
          10
 Point   77
C      -0.84664100     -1.11417800     -0.64094300
H      -0.01233400     -1.80758700     -0.68912600
H      -1.83445500     -1.50960800     -0.84128500
C      -0.63818400      0.18039000     -0.42750300
H      -1.45431200      0.88859400     -0.31621400
C       0.76678600      0.59595600     -0.16189100
H       1.58808700      0.28049800     -0.79704800
C       0.74638700      0.45524200      1.16087300
H       1.54212900      0.04255600      1.77728900
H      -0.16665000      0.70756600      1.69347900
          10
 Point   78
C      -0.84967600     -1.11421500     -0.64407100
H      -0.01588400     -1.80815900     -0.68911200
H      -1.83871600     -1.51190200     -0.83723400
C      -0.64051600      0.18034200     -0.43580500
H      -1.45601800      0.88990200     -0.32874900
C       0.76264700      0.58967900     -0.15620500
H       1.58733500      0.29712600     -0.79805300
C       0.75459000      0.45908000      1.16648400
H       1.56579300      0.07775400      1.78045000
H      -0.16453400      0.68734200      1.70137300
          10
 Point   79
C      -0.85294700     -1.11436000     -0.64723300
H      -0.01933300     -1.80905300     -0.68884400
H      -1.84187500     -1.51351400     -0.83452600
C      -0.64269400      0.18024700     -0.44385700
H      -1.45749100      0.89136300     -0.34173300
C       0.75859500      0.58341900     -0.15054700
H       1.58621900      0.31438500     -0.79870000
C       0.76233300      0.46285000      1.17201700
H       1.59078600      0.11394800      1.78364500
H      -0.15939200      0.66744400      1.70911500
          10
 Point   80
C      -0.85618800     -1.11451600     -0.65050800
H      -0.02330500     -1.80997400     -0.68784400
H      -1.84634900     -1.51548500     -0.83199600
C      -0.64476800      0.18005200     -0.45175600
H      -1.45866000      0.89296500     -0.35532800
C       0.75455600      0.57717900     -0.14489300
H       1.58497700      0.33224200     -0.79931000
C       0.77047100      0.46672400      1.17753300
H       1.61253900      0.15034100      1.78494700
H      -0.15581000      0.64684200      1.71853800
          10
 Point   81
C      -0.85973100     -1.11481200     -0.65381000
H      -0.02718300     -1.81129100     -0.68655100
H      -1.84934800     -1.51653400     -0.83127300
C      -0.64665900      0.17977700     -0.45934800
H      -1.45954800      0.89473600     -0.36936400
C       0.75064300      0.57103200     -0.13927800
H       1.58318700      0.35067400     -0.79935800
C       0.77793500      0.47045300      1.18294500
H       1.63673400      0.18791200      1.78668200
H      -0.14803000      0.62701800      1.72727100
          10
 Point   82
C      -0.86319900     -1.11511100     -0.65723100
H      -0.03178800     -1.81265600     -0.68444800
H      -1.85442600     -1.51819900     -0.83039900
C      -0.64844500      0.17935500     -0.46682000
H      -1.46003000      0.89661500     -0.38421000
C       0.74670900      0.56496300     -0.13364600
H       1.58150000      0.36975000     -0.79950300
C       0.78616000      0.47439900      1.18835100
H       1.65564900      0.22494400      1.78571900
H      -0.14363200      0.60591400      1.73853400
          10
 Point   83
C      -0.86710000     -1.11560400     -0.66064900
H      -0.03618100     -1.81456600     -0.68203600
H      -1.85693000     -1.51836500     -0.83232100
C      -0.64999100      0.17882400     -0.47385300
H      -1.46019800      0.89868800     -0.39937700
C       0.74299600      0.55910700     -0.12809500
H       1.57878200      0.38921500     -0.79867600
C       0.79311700      0.47797800      1.19359100
H       1.68006500      0.26390600      1.78642100
H      -0.13201800      0.58681200      1.74762500
          10
 Point   84
C      -0.87077700     -1.11606500     -0.66418900
H      -0.04175200     -1.81651500     -0.67870500
H      -1.86329000     -1.51981500     -0.83304600
C      -0.65145200      0.17809500     -0.48087100
H      -1.45979400      0.90079300     -0.41579100
C       0.73916000      0.55337700     -0.12249100
H       1.57695200      0.40959100     -0.79849900
C       0.80173900      0.48208500      1.19885000
H       1.69398600      0.30032200      1.78252000
H      -0.12840900      0.56480700      1.76153800
          10
 Point   85
C      -0.87508000     -1.11677300     -0.66762800
H      -0.04679400     -1.81924200     -0.67491500
H      -1.86482700     -1.51865900     -0.83834900
C      -0.65254400      0.17724400     -0.48709800
H      -1.45905500      0.90317600     -0.43216100
C       0.73583800      0.54810200     -0.11715600
H       1.57282400      0.42987200     -0.79640900
C       0.80760200      0.48519400      1.20377400
H       1.72064500      0.34099900      1.78299600
H      -0.11112500      0.54738500      1.76979000
          10
 Point   86
C      -0.87898400     -1.11745300     -0.67117300
H      -0.05351100     -1.82203400     -0.67037500
H      -1.87227600     -1.51952100     -0.84123800
C      -0.65361700      0.17615200     -0.49356600
H      -1.45757700      0.90542200     -0.45026900
C       0.73206700      0.54291100     -0.11162500
H       1.57140300      0.45173600     -0.79614600
C       0.81671100      0.48946200      1.20879600
H       1.72834900      0.37539700      1.77590300
H      -0.10900400      0.52461400      1.78663100
          10
 Point   87
C      -0.88357200     -1.11832900     -0.67466000
H      -0.05975300     -1.82560200     -0.66480900
H      -1.87474300     -1.51774300     -0.84892400
C      -0.65425400      0.17487700     -0.49915700
H      -1.45567000      0.90798700     -0.46827900
C       0.72909500      0.53837600     -0.10645400
H       1.56574800      0.47307800     -0.79292200
C       0.82214100      0.49225400      1.21350000
H       1.75396900      0.41661600      1.77471700
H      -0.08922000      0.50764800      1.79525700
          10
 Point   88
C      -0.88819700     -1.11946600     -0.67831100
H      -0.06718200     -1.82943100     -0.65927200
H      -1.88061800     -1.51683700     -0.85596000
C      -0.65487300      0.17332600     -0.50525300
H      -1.45314000      0.91018900     -0.48729900
C       0.72522100      0.53378500     -0.10074700
H       1.56392000      0.49655600     -0.79203100
C       0.83109500      0.49657900      1.21846400
H       1.76168900      0.44976400      1.76714600
H      -0.08238500      0.48690200      1.81143300
          10
 Point   89
C      -0.89301900     -1.12049000     -0.68223200
H      -0.07542500     -1.83373000     -0.65152100
H      -1.88588000     -1.51528600     -0.86548900
C      -0.65529600      0.17133800     -0.51067000
H      -1.44996500      0.91254300     -0.50692500
C       0.72227000      0.53004900     -0.09539700
H       1.55600200      0.51761200     -0.78730300
C       0.83768300      0.49984200      1.22324300
H       1.78181600      0.48861700      1.76288200
H      -0.06513200      0.46890000      1.82296900
          10
 Point   90
C      -0.89845300     -1.12222800     -0.68587300
H      -0.08379500     -1.83906100     -0.64478200
H      -1.89014800     -1.51240000     -0.87706400
C      -0.65522100      0.16943700     -0.51611200
H      -1.44622000      0.91454100     -0.52710200
C       0.71831700      0.52612900     -0.08956000
H       1.55596200      0.54490200     -0.78791500
C       0.84587600      0.50395000      1.22805100
H       1.79055800      0.52014400      1.75548300
H      -0.05160200      0.45162700      1.83739900
          10
 Point   91
C      -0.90320300     -1.12317000     -0.69003500
H      -0.09452400     -1.84440500     -0.63471300
H      -1.89707300     -1.51032700     -0.88878900
C      -0.65563300      0.16651400     -0.52089700
H      -1.44162300      0.91663600     -0.54897200
C       0.71620300      0.52420200     -0.08474300
H       1.54051700      0.55935200     -0.77699100
C       0.85292600      0.50732700      1.23243500
H       1.80824500      0.55679100      1.74929000
H      -0.03809200      0.43045500      1.85316800
          10
 Point   92
C      -0.90860500     -1.12532000     -0.69305400
H      -0.10404000     -1.85130200     -0.62611400
H      -1.90094600     -1.50608400     -0.90310800
C      -0.65450900      0.16491800     -0.52494400
H      -1.43669500      0.91842900     -0.56990800
C       0.71180100      0.52056400     -0.07903200
H       1.54968900      0.59575100     -0.78608000
C       0.85924100      0.51028300      1.23663400
H       1.81460800      0.58433100      1.74202400
H      -0.01700800      0.42010300      1.86230600
          10
 Point   93
C      -0.91385700     -1.12671800     -0.69650900
H      -0.11581800     -1.85826200     -0.61575600
H      -1.90539800     -1.50123000     -0.91904800
C      -0.65464400      0.16144600     -0.52904900
H      -1.43061800      0.92007600     -0.59384800
C       0.71049400      0.52050700     -0.07501100
H       1.53121600      0.60814400     -0.77155900
C       0.86653400      0.51353200      1.24041000
H       1.82670400      0.61560600      1.73434200
H      -0.00762100      0.39686700      1.88217700
          10
 Point   94
C      -0.91938800     -1.12864800     -0.70032900
H      -0.12819100     -1.86509200     -0.60393500
H      -1.91316100     -1.49805000     -0.93410800
C      -0.65330600      0.15861900     -0.53341600
H      -1.42411600      0.92109100     -0.61600800
C       0.70631100      0.51861000     -0.06909000
H       1.52878600      0.63789700     -0.77333900
C       0.87365300      0.51639800      1.24491900
H       1.83668900      0.64436900      1.72762400
H       0.01343600      0.38609200      1.88936300
          10
 Point   95
C      -0.92612100     -1.13117300     -0.70369400
H      -0.14085100     -1.87307700     -0.59294000
H      -1.91469300     -1.49129800     -0.95469900
C      -0.65230600      0.15499200     -0.53766500
H      -1.41668800      0.92170300     -0.63947000
C       0.70369700      0.51876600     -0.06385900
H       1.51980700      0.66004100     -0.76683000
C       0.88139000      0.51999700      1.24877600
H       1.84561200      0.66976500      1.71922900
H       0.02750700      0.36771200      1.90675300
          10
 Point   96
C      -0.93145200     -1.13286900     -0.70787100
H      -0.15698000     -1.88191200     -0.57866400
H      -1.92449900     -1.48752600     -0.97116000
C      -0.65115000      0.15103300     -0.54146500
H      -1.40872600      0.92198900     -0.66492900
C       0.70028800      0.51880000     -0.05869100
H       1.51060900      0.68480300     -0.76384700
C       0.88862300      0.52270000      1.25338500
H       1.85551000      0.69654000      1.71310100
H       0.04897100      0.35570800      1.91610400
          10
 Point   97
C      -0.93857000     -1.13604000     -0.71057500
H      -0.17062400     -1.89022800     -0.56599000
H      -1.92364500     -1.47955200     -0.99438400
C      -0.64931100      0.14778100     -0.54552300
H      -1.40006800      0.92164100     -0.68808800
C       0.69745100      0.51974400     -0.05312700
H       1.50353800      0.70988700     -0.75996100
C       0.89576600      0.52585600      1.25638800
H       1.86425500      0.71806600      1.70430700
H       0.06299400      0.33742200      1.93323400
          10
 Point   98
C      -0.94360900     -1.13757300     -0.71439300
H      -0.18894900     -1.90086800     -0.55279100
H      -1.93356300     -1.47461800     -1.01110500
C      -0.64822000      0.14302400     -0.54869500
H      -1.39078800      0.92119600     -0.71841900
C       0.69406200      0.52160100     -0.04901400
H       1.49220100      0.73147500     -0.75378700
C       0.90314100      0.52799500      1.26136700
H       1.87024000      0.73980700      1.69910500
H       0.08686400      0.32757000      1.94109000
          10
 Point   99
C      -0.94990300     -1.14030700     -0.71622900
H      -0.20434200     -1.90783100     -0.53349400
H      -1.93199800     -1.46727000     -1.03440800
C      -0.64593600      0.14043700     -0.55280600
H      -1.38056600      0.91991400     -0.73845000
C       0.69156200      0.52250100     -0.04283300
H       1.48489200      0.76042800     -0.75463000
C       0.90861800      0.52998500      1.26260800
H       1.88317200      0.76235000      1.69013800
H       0.09715400      0.30591500      1.95738300
          10
 Point  100
C      -0.95548400     -1.14299800     -0.71868800
H      -0.22117500     -1.91883800     -0.52483700
H      -1.93690400     -1.46172600     -1.05148200
C      -0.64415400      0.13636400     -0.55572900
H      -1.37076300      0.91945800     -0.77278200
C       0.68769600      0.52654300     -0.04069700
H       1.47299400      0.77759300     -0.74418300
C       0.91639500      0.53146700      1.26830700
H       1.87964900      0.77306800      1.68540700
H       0.12317500      0.29872300      1.96520400
          10
 Point  101
C      -0.95928700     -1.14308700     -0.71987400
H      -0.23854200     -1.92546100     -0.50180200
H      -1.93928800     -1.45445600     -1.07076800
C      -0.64329400      0.13254000     -0.55924600
H      -1.35902800      0.91696300     -0.79595900
C       0.68600900      0.52726600     -0.03409600
H       1.46505700      0.80812900     -0.74584000
C       0.92003300      0.53178500      1.26795900
H       1.89686400      0.79996200      1.67865100
H       0.13373100      0.27733200      1.97459900
          10
 Point  102
C      -0.96603700     -1.14795100     -0.72094700
H      -0.25378200     -1.93251500     -0.48816700
H      -1.93890600     -1.45192300     -1.08762900
C      -0.63883500      0.13153700     -0.56400400
H      -1.34825200      0.91547000     -0.82060200
C       0.68071900      0.53172000     -0.03254500
H       1.45187100      0.82727900     -0.74003000
C       0.92786200      0.53270800      1.27359200
H       1.89281500      0.80543900      1.67341800
H       0.15208600      0.26456100      1.98576300
          10
 Point  103
C      -0.96908400     -1.14632700     -0.72119000
H      -0.27121200     -1.93950300     -0.46886700
H      -1.94039800     -1.44523500     -1.10322600
C      -0.64056600      0.12467300     -0.56702400
H      -1.33609700      0.91487300     -0.85610400
C       0.68137900      0.53572200     -0.02561500
H       1.44410700      0.85416200     -0.73411900
C       0.93106100      0.53154200      1.27229700
H       1.90061000      0.82438200      1.66799900
H       0.16977200      0.24823300      1.98884300
          10
 Point  104
C      -0.97384700     -1.15082400     -0.72093800
H      -0.28493300     -1.94439800     -0.44984600
H      -1.94062000     -1.44138000     -1.11785900
C      -0.63369200      0.12730400     -0.57142200
H      -1.32485800      0.90935200     -0.87187900
C       0.67276600      0.53679000     -0.02767000
H       1.43222400      0.87693800     -0.73206300
C       0.93745300      0.53148800      1.27871600
H       1.90580700      0.83712500      1.66539600
H       0.18046700      0.22942700      1.99816600
          10
 Point  105
C      -0.97714900     -1.15043600     -0.71994100
H      -0.30124400     -1.94927900     -0.43173200
H      -1.93980200     -1.43962200     -1.12854700
C      -0.63571900      0.12153500     -0.57600000
H      -1.31410100      0.90980600     -0.90258400
C       0.67653600      0.54325100     -0.01866500
H       1.41944600      0.89970900     -0.72935900
C       0.93949600      0.52968900      1.27497200
H       1.89965800      0.84220500      1.65960200
H       0.19838300      0.21280900      2.00453500
          10
 Point  106
C      -0.98018900     -1.15147100     -0.71858200
H      -0.31378900     -1.95151000     -0.41184500
H      -1.93702200     -1.43595100     -1.14085800
C      -0.63082200      0.12095600     -0.57834800
H      -1.29961200      0.90869700     -0.93064000
C       0.66795400      0.54495000     -0.02270900
H       1.41289100      0.92500000     -0.72092100
C       0.94455000      0.52752500      1.28127900
H       1.91027100      0.85833900      1.65874400
H       0.20947300      0.19580900      2.00227000
          10
 Point  107
C      -0.98502000     -1.15449100     -0.71560700
H      -0.32569600     -1.95385500     -0.39367000
H      -1.93896700     -1.43600400     -1.14795000
C      -0.62898800      0.12026900     -0.58748900
H      -1.28997800      0.90121700     -0.94787400
C       0.66850500      0.55132700     -0.01387200
H       1.39904300      0.94866300     -0.71759100
C       0.94793000      0.52514300      1.27864100
H       1.90513400      0.86334400      1.65510200
H       0.22156000      0.17358800      2.00833500
          10
 Point  108
C      -0.98622200     -1.15222000     -0.71286300
H      -0.34157200     -1.95630500     -0.36936400
H      -1.93617400     -1.43354200     -1.15567500
C      -0.62563700      0.11594900     -0.58859800
H      -1.27517200      0.90285900     -0.98519400
C       0.66346800      0.55645200     -0.01772300
H       1.39024700      0.97539100     -0.71300700
C       0.95026800      0.52094100      1.28206600
H       1.90616300      0.86956600      1.65480500
H       0.23414800      0.15240200      2.01040500
          10
 Point  109
C      -0.99081500     -1.15677500     -0.70792100
H      -0.35015900     -1.95663900     -0.35268100
H      -1.93488900     -1.43554300     -1.15942500
C      -0.62224900      0.11836300     -0.59917800
H      -1.26610400      0.89593500     -0.99978400
C       0.66124000      0.56297100     -0.01083900
H       1.37804000      0.99737000     -0.70621200
C       0.95361200      0.51629800      1.28093400
H       1.90752400      0.87646600      1.65523600
H       0.24429500      0.13593800      2.00346800
          10
 Point  110
C      -0.99089800     -1.15286100     -0.70411400
H      -0.36511600     -1.95669400     -0.32600900
H      -1.93439700     -1.43307600     -1.16330600
C      -0.61963100      0.11365400     -0.60152800
H      -1.25270300      0.89157700     -1.03245500
C       0.65752700      0.56781400     -0.01349800
H       1.37174500      1.02641700     -0.69877300
C       0.95512200      0.51248600      1.28164900
H       1.90244400      0.87821700      1.65437600
H       0.25278600      0.10428100      2.01256400
          10
 Point  111
C      -0.99384300     -1.15699400     -0.69762400
H      -0.37113800     -1.95508700     -0.30834700
H      -1.93078100     -1.43581800     -1.16436800
C      -0.61569400      0.11665800     -0.60951800
H      -1.24300000      0.88969600     -1.05516400
C       0.65540400      0.57584500     -0.01020800
H       1.35742300      1.04626700     -0.69652300
C       0.95588400      0.50510600      1.28101500
H       1.90318500      0.87900600      1.65634100
H       0.26346400      0.09233900      2.00069400
          10
 Point  112
C      -0.99427700     -1.15388300     -0.69201400
H      -0.38390800     -1.95358800     -0.28098900
H      -1.92873500     -1.43701800     -1.16432300
C      -0.61301900      0.11371200     -0.61632400
H      -1.22969500      0.88067200     -1.07772200
C       0.65115300      0.58143400     -0.00994400
H       1.35078200      1.07532500     -0.68607900
C       0.95809900      0.50008800      1.28053700
H       1.89999500      0.88051700      1.65780100
H       0.26827000      0.06173700      2.00073200
          10
 Point  113
C      -0.99523900     -1.15594100     -0.68360800
H      -0.38542300     -1.94667800     -0.26302000
H      -1.92465500     -1.43960300     -1.16314000
C      -0.60879400      0.11630700     -0.62223900
H      -1.22039700      0.88057700     -1.10859800
C       0.64872600      0.58938800     -0.00972600
H       1.33951300      1.09494200     -0.68141200
C       0.95679300      0.49164200      1.27883700
H       1.89648400      0.87563100      1.65896200
H       0.27679100      0.04223900      1.99461400
          10
 Point  114
C      -0.99487400     -1.15317400     -0.67722400
H      -0.39868000     -1.94772100     -0.23166200
H      -1.92167800     -1.44393500     -1.15980900
C      -0.60616600      0.11479800     -0.63015500
H      -1.20955800      0.86974300     -1.12351000
C       0.64515400      0.59624700     -0.00931800
H       1.33154200      1.12266800     -0.67523000
C       0.95791200      0.48462700      1.27818500
H       1.89403500      0.87375200      1.66338900
H       0.28022100      0.01948300      1.98538300
          10
 Point  115
C      -0.99549000     -1.15407600     -0.66833900
H      -0.39695400     -1.93467000     -0.21731600
H      -1.91728400     -1.44525500     -1.15777600
C      -0.60243600      0.11662000     -0.63569900
H      -1.19995800      0.86930900     -1.15690500
C       0.64252900      0.60253900     -0.00916600
H       1.32323400      1.14223600     -0.66441000
C       0.95680600      0.47737700      1.27542700
H       1.88901400      0.87064100      1.66488300
H       0.28518400     -0.00782000      1.98133500
          10
 Point  116
C      -0.99428000     -1.15194900     -0.66127800
H      -0.40738900     -1.93527100     -0.18548300
H      -1.91360100     -1.45153400     -1.15250500
C      -0.59928200      0.11681700     -0.64241900
H      -1.18984600      0.86091600     -1.17149500
C       0.63957900      0.61002800     -0.01000500
H       1.31291600      1.16618200     -0.66247500
C       0.95595400      0.46897200      1.27444800
H       1.88515200      0.86322000      1.66916100
H       0.28930100     -0.02584300      1.97019300
          10
 Point  117
C      -0.99434200     -1.15114500     -0.65216700
H      -0.40874900     -1.92353200     -0.16781000
H      -1.90902700     -1.45339500     -1.14839900
C      -0.59594900      0.11738200     -0.64946600
H      -1.17963100      0.85606500     -1.19792700
C       0.63671200      0.61623200     -0.00935800
H       1.30573000      1.18917800     -0.65075300
C       0.95517700      0.46161700      1.27157300
H       1.88070000      0.86099200      1.67216400
H       0.29193800     -0.05423700      1.96206600
          10
 Point  118
C      -0.99269500     -1.14963800     -0.64377300
H      -0.41543600     -1.92032900     -0.13913800
H      -1.90448800     -1.45906100     -1.14229000
C      -0.59205600      0.11868100     -0.65518800
H      -1.17074800      0.85031700     -1.21737700
C       0.63383600      0.62412800     -0.01079600
H       1.29582200      1.20893100     -0.64548300
C       0.95299600      0.45247500      1.26918500
H       1.87496800      0.85089500      1.67583000
H       0.29510300     -0.07425600      1.95155500
          10
 Point  119
C      -0.99252500     -1.14757400     -0.63464800
H      -0.41623100     -1.90779000     -0.12086500
H      -1.90052700     -1.46130700     -1.13660000
C      -0.58884400      0.11852400     -0.66304500
H      -1.16080300      0.84264100     -1.24025400
C       0.63072900      0.62952300     -0.00987300
H       1.28765000      1.23632100     -0.63806600
C       0.95258200      0.44503100      1.26684700
H       1.86972900      0.84941500      1.68109300
H       0.29705400     -0.10109100      1.93953100
          10
 Point  120
C      -0.99111200     -1.14683000     -0.62698100
H      -0.42373300     -1.90517200     -0.09125400
H      -1.89550300     -1.46833300     -1.13034400
C      -0.58526200      0.11988900     -0.66760100
H      -1.15193000      0.83832300     -1.25804700
C       0.62884700      0.63863000     -0.01171600
H       1.28016600      1.24817300     -0.62436400
C       0.94973700      0.43623100      1.26346400
H       1.86468600      0.83873800      1.68345000
H       0.29999800     -0.12230100      1.93058900
          10
 Point  121
C      -0.98983600     -1.14374700     -0.61896600
H      -0.42546400     -1.89184700     -0.07367100
H      -1.89188100     -1.47040600     -1.12458800
C      -0.58226700      0.12035300     -0.67394600
H      -1.14260200      0.83048600     -1.28233100
C       0.62494100      0.64009200     -0.01034200
H       1.26971300      1.28268400     -0.62664300
C       0.94971300      0.43018700      1.26147200
H       1.85710500      0.83599000      1.68922900
H       0.30274800     -0.14515600      1.91549600
          10
 Point  122
C      -0.99117800     -1.14359700     -0.61257900
H      -0.43067600     -1.88475700     -0.05177300
H      -1.88933700     -1.47348600     -1.12040400
C      -0.57907900      0.11914200     -0.67922700
H      -1.13174000      0.82229000     -1.29651500
C       0.62471900      0.65062200     -0.01178300
H       1.25835700      1.29086300     -0.61084600
C       0.94817300      0.42263100      1.25967200
H       1.85515300      0.83403800      1.69435500
H       0.30687000     -0.16998600      1.90809200
          10
 Point  123
C      -0.98831300     -1.14142300     -0.60514400
H      -0.43962400     -1.88083100     -0.02565500
H      -1.88396700     -1.47892600     -1.11445700
C      -0.57609100      0.12201300     -0.68419800
H      -1.12142000      0.81969800     -1.32110500
C       0.61966700      0.65134500     -0.01035000
H       1.25304500      1.31884300     -0.60118600
C       0.94752100      0.41725800      1.25546800
H       1.84579200      0.82538100      1.69622700
H       0.31303100     -0.18989200      1.89275400
          10
 Point  124
C      -0.99059400     -1.14032800     -0.59827400
H      -0.44243900     -1.86943200     -0.01454900
H      -1.88212400     -1.47987000     -1.11122400
C      -0.57184000      0.11886300     -0.68961900
H      -1.11097100      0.80864100     -1.33236000
C       0.61975300      0.66202900     -0.01197300
H       1.23910800      1.33540700     -0.59907700
C       0.94546200      0.40937300      1.25539800
H       1.84478500      0.82332500      1.69960500
H       0.31851800     -0.21265700      1.88707000
          10
 Point  125
C      -0.98819900     -1.13746900     -0.59112700
H      -0.45001300     -1.86551500      0.01301900
H      -1.87788500     -1.48257600     -1.10655700
C      -0.56876800      0.12112100     -0.69574600
H      -1.10243200      0.80314700     -1.35822600
C       0.61437100      0.66275200     -0.00927700
H       1.22708500      1.35354200     -0.58468600
C       0.94615600      0.40436200      1.25072500
H       1.83706900      0.82222400      1.70623300
H       0.32378600     -0.23528900      1.87109200
          10
 Point  126
C      -0.99055600     -1.13758600     -0.58413400
H      -0.45518400     -1.85630000      0.02565000
H      -1.87396100     -1.48672600     -1.10309800
C      -0.56456400      0.11852500     -0.70135100
H      -1.09045800      0.79676400     -1.36620800
C       0.61340000      0.67365000     -0.01064700
H       1.22608600      1.37491300     -0.57506300
C       0.94423200      0.39673800      1.24997700
H       1.83331300      0.81259800      1.70439700
H       0.33029700     -0.25239500      1.86388700
          10
 Point  127
C      -0.98808200     -1.13301100     -0.57714900
H      -0.46140200     -1.84864600      0.04936300
H      -1.87018100     -1.48936400     -1.09933100
C      -0.56045200      0.11940300     -0.70549100
H      -1.08295200      0.78761600     -1.39155700
C       0.60918800      0.67532000     -0.00936100
H       1.20561900      1.39043000     -0.57099800
C       0.94320700      0.39050200      1.24559100
H       1.82752700      0.81531100      1.71293100
H       0.33541700     -0.27705200      1.85218600
          10
 Point  128
C      -0.98999800     -1.13339500     -0.57040000
H      -0.46808700     -1.84121300      0.06534000
H      -1.86676000     -1.49147200     -1.09534700
C      -0.55728500      0.11840700     -0.71445400
H      -1.07226500      0.78153200     -1.40212800
C       0.60613300      0.68299600     -0.00763000
H       1.20205300      1.40872500     -0.55659700
C       0.94458600      0.38458400      1.24502300
H       1.82267300      0.80887200      1.71324100
H       0.34148400     -0.29263900      1.84059500
          10
 Point  129
C      -0.98956800     -1.12948800     -0.56543900
H      -0.47717000     -1.83172800      0.08692800
H      -1.86203200     -1.49404800     -1.09566400
C      -0.55261800      0.11564400     -0.71389800
H      -1.06022200      0.77253000     -1.42404900
C       0.60387800      0.68893600     -0.00857400
H       1.19154400      1.42830400     -0.54892500
C       0.94192300      0.37777800      1.24024500
H       1.81622200      0.80819500      1.71893400
H       0.34862100     -0.31277300      1.83031200
          10
 Point  130
C      -0.98984500     -1.13000900     -0.55875700
H      -0.48407300     -1.82739400      0.10062100
H      -1.85994400     -1.49739200     -1.09051900
C      -0.54982600      0.11914900     -0.72526500
H      -1.05281900      0.76711400     -1.43165800
C       0.59945600      0.69040600     -0.00521200
H       1.17664500      1.43967400     -0.54323400
C       0.94455700      0.37433000      1.24052900
H       1.81277200      0.80758200      1.71937800
H       0.35572000     -0.33108100      1.82533600
          10
 Point  131
C      -0.99160400     -1.12596800     -0.55851500
H      -0.49619400     -1.81497000      0.12252900
H      -1.85600700     -1.50005800     -1.09309300
C      -0.54806100      0.11227200     -0.72288100
H      -1.03774700      0.75829800     -1.45884400
C       0.59844200      0.69637300     -0.00511100
H       1.16683800      1.45882200     -0.53031200
C       0.94522200      0.37029400      1.23828400
H       1.80833100      0.81094700      1.72432400
H       0.36715200     -0.34375600      1.80958000
          10
 Point  132
C      -0.99075200     -1.12909700     -0.56045400
H      -0.48480300     -1.82694700      0.09878000
H      -1.86002600     -1.49540900     -1.09303400
C      -0.54960600      0.11564200     -0.72165100
H      -1.05155100      0.76664200     -1.43457500
C       0.60032300      0.69271600     -0.00601900
H       1.17974700      1.43992900     -0.54165300
C       0.94396500      0.37401100      1.24004900
H       1.81331800      0.80799400      1.71958500
H       0.35650700     -0.32651400      1.82331900
