          42
 Point    1
C       2.32260300     -1.53590700      0.68044000
C       2.19901700     -2.95273100      0.87566800
C       1.07699100     -3.60500300      0.45482400
C      -0.05437500     -2.86165800     -0.02310600
C      -0.02747300     -1.44824500     -0.01172600
C       1.26785300     -0.80642900      0.10082800
C      -1.21303800     -3.55360500     -0.51266700
C      -2.30920000     -2.85240500     -0.92295000
C      -2.37884500     -1.43523400     -0.70499900
C      -1.29743300     -0.75593200     -0.11363400
C       1.56943800      0.51638700     -0.42921200
C       2.78550200      1.14794200     -0.06518000
C       3.75298600      0.43389700      0.73213400
C       3.55015300     -0.87288300      1.04638700
C      -3.57994100     -0.72004300     -1.06036900
C      -3.73301800      0.58823400     -0.72492900
C      -2.73971200      1.25176500      0.08429400
C      -1.54882300      0.56853200      0.43801700
C      -2.98024100      2.56514800      0.57814800
C      -2.09548600      3.15443900      1.45492300
C      -0.95016300      2.44064500      1.88600900
C      -0.68782800      1.17900700      1.39492400
C       0.73222000      1.17487800     -1.37529100
C       1.04207400      2.43370800     -1.84528800
C       2.21370900      3.09626400     -1.40320900
C       3.07566800      2.45926200     -0.53725700
H       3.03428100     -3.49321900      1.31866400
H       1.00387800     -4.69067800      0.50037400
H      -1.18130700     -4.64040100     -0.57556700
H      -3.16421100     -3.35349400     -1.37451300
H       4.65786500      0.95755100      1.03727200
H       4.30033900     -1.44756600      1.58834000
H      -4.35105600     -1.25681200     -1.61182400
H      -4.61698500      1.15091300     -1.02177300
H      -3.87999900      3.09015400      0.26185300
H      -2.27146500      4.15920000      1.83488300
H      -0.28155600      2.89925000      2.61294600
H       0.18262800      0.62969800      1.75824900
H      -0.15836200      0.66505400     -1.74728900
H       0.39120800      2.92940800     -2.56388300
H       2.42755400      4.09985000     -1.76631200
H       3.99482700      2.94435500     -0.21306500
          42
 Point    2
C       2.32094300     -1.53286300      0.68629400
C       2.19541500     -2.94909200      0.88538900
C       1.07455300     -3.60173100      0.46199500
C      -0.05457300     -2.85871600     -0.02183300
C      -0.02736200     -1.44533400     -0.01117200
C       1.26793600     -0.80380000      0.10300600
C      -1.21121500     -3.55026300     -0.51684900
C      -2.30547500     -2.84859300     -0.93169300
C      -2.37643300     -1.43175700     -0.71171000
C      -1.29711900     -0.75304800     -0.11576200
C       1.57155700      0.51690000     -0.43112900
C       2.79019900      1.14648400     -0.07159400
C       3.75574200      0.43414900      0.72955500
C       3.54940900     -0.87054100      1.05066000
C      -3.57723900     -0.71664100     -1.06818700
C      -3.73357100      0.58965000     -0.72639700
C      -2.74362500      1.25091200      0.08901500
C      -1.55086300      0.56934600      0.43974000
C      -2.98975700      2.55992700      0.59199100
C      -2.10792800      3.14678200      1.47347500
C      -0.95897400      2.43534200      1.89873900
C      -0.69123300      1.17807800      1.39900600
C       0.73452400      1.17421300     -1.37824100
C       1.04855300      2.42923200     -1.85566000
C       2.22429600      3.08928000     -1.42011900
C       3.08505000      2.45389600     -0.55177300
H       3.02866400     -3.48901600      1.33289600
H       1.00057700     -4.68727900      0.50983500
H      -1.17925600     -4.63701000     -0.58031600
H      -3.15838500     -3.34913800     -1.38789600
H       4.66197400      0.95721100      1.03219100
H       4.29775400     -1.44413200      1.59628300
H      -4.34566200     -1.25193000     -1.62499300
H      -4.61773100      1.15224400     -1.02285400
H      -3.89161000      3.08338800      0.27908700
H      -2.28880100      4.14782500      1.86126300
H      -0.29186100      2.89221000      2.62820600
H       0.18240500      0.63072300      1.75769600
H      -0.15925800      0.66639700     -1.74559200
H       0.39790800      2.92373800     -2.57533400
H       2.44201400      4.08965800     -1.78982000
H       4.00690400      2.93717800     -0.23191800
          42
 Point    3
C       2.31850900     -1.52617500      0.69894500
C       2.18616000     -2.94013400      0.91244400
C       1.06639100     -3.59326200      0.48715500
C      -0.05604400     -2.85058400     -0.01260600
C      -0.02696200     -1.43714800     -0.00627300
C       1.26888900     -0.79676900      0.10982100
C      -1.20708400     -3.54170900     -0.52135400
C      -2.29498200     -2.83915100     -0.95219200
C      -2.36886600     -1.42270500     -0.73012500
C      -1.29635300     -0.74536400     -0.12023800
C       1.57781600      0.51874600     -0.43435400
C       2.80708900      1.13929600     -0.09362800
C       3.77194200      0.42808500      0.70898800
C       3.55413000     -0.86969600      1.05040000
C      -3.56735600     -0.70757300     -1.09461400
C      -3.73286300      0.59372400     -0.73807400
C      -2.75444000      1.24887800      0.09691700
C      -1.55805700      0.57170700      0.44406100
C      -3.01662000      2.54643200      0.62252200
C      -2.14534800      3.12668000      1.51937000
C      -0.98824700      2.42167200      1.93317100
C      -0.70453000      1.17614200      1.41159200
C       0.73690200      1.17843300     -1.37649900
C       1.05970900      2.42528400     -1.86902900
C       2.25026400      3.07439000     -1.45663500
C       3.11351600      2.43713300     -0.59248200
H       3.01441700     -3.47861700      1.37091500
H       0.98832400     -4.67830700      0.54436000
H      -1.17501400     -4.62858400     -0.58325800
H      -3.14166200     -3.33868400     -1.42104800
H       4.68626400      0.94600200      0.99717300
H       4.29967700     -1.44248600      1.60058300
H      -4.32700100     -1.23911800     -1.66757900
H      -4.61618100      1.15629300     -1.03727900
H      -3.92255600      3.06606500      0.31502900
H      -2.33997000      4.11800600      1.92669600
H      -0.32715300      2.87428900      2.67105300
H       0.17706400      0.63444200      1.75956000
H      -0.16738100      0.67876900     -1.72985300
H       0.40494500      2.92120700     -2.58394200
H       2.47670200      4.06748900     -1.84029900
H       4.04613700      2.91151300     -0.28978700
          42
 Point    4
C       2.32068400     -1.52279700      0.70392500
C       2.17831300     -2.93253300      0.93880500
C       1.05470400     -3.58422600      0.52182300
C      -0.05983700     -2.84091800      0.00644300
C      -0.02573400     -1.42739300      0.00253500
C       1.27240000     -0.79030700      0.11532000
C      -1.20622600     -3.53265000     -0.51220200
C      -2.28490000     -2.82988900     -0.96494700
C      -2.35898500     -1.41250900     -0.74852100
C      -1.29456400     -0.73592200     -0.12390100
C       1.58687900      0.52059300     -0.43742200
C       2.82956500      1.12813000     -0.12034100
C       3.79957000      0.41215500      0.67209200
C       3.56935700     -0.87820300      1.03197400
C      -3.55223500     -0.69680600     -1.12883700
C      -3.72854400      0.59964200     -0.76066800
C      -2.76655700      1.24758800      0.09859500
C      -1.56724900      0.57590400      0.44699500
C      -3.04931000      2.53091200      0.64677900
C      -2.19346600      3.10327100      1.56327700
C      -1.02847800      2.40710100      1.96956900
C      -0.72422000      1.17610100      1.42611900
C       0.73850800      1.18903000     -1.36752400
C       1.06738700      2.43040700     -1.86959000
C       2.27399600      3.06528500     -1.48196900
C       3.14471400      2.41923700     -0.63108800
H       3.00237600     -3.46978800      1.40611800
H       0.96834200     -4.66775600      0.59529600
H      -1.17643700     -4.62008200     -0.56549600
H      -3.12512000     -3.32934900     -1.44509100
H       4.72625100      0.92047300      0.93919600
H       4.31583500     -1.45447200      1.57769700
H      -4.29941800     -1.22449300     -1.72116300
H      -4.60849600      1.16290300     -1.06843900
H      -3.95905700      3.04522900      0.34155000
H      -2.40558600      4.08221400      1.99053400
H      -0.37743000      2.85506400      2.71914000
H       0.16544300      0.64209100      1.76496500
H      -0.17736000      0.70042600     -1.70622700
H       0.40513800      2.93256500     -2.57399900
H       2.50632500      4.05364600     -1.87395500
H       4.08957800      2.88160800     -0.34727800
          42
 Point    5
C       2.32471600     -1.52190700      0.70422800
C       2.17204500     -2.92622100      0.96286400
C       1.04277900     -3.57545000      0.55877600
C      -0.06416500     -2.83153300      0.02913400
C      -0.02433600     -1.41806600      0.01322400
C       1.27659800     -0.78471900      0.12020500
C      -1.20645100     -3.52484500     -0.49680000
C      -2.27552000     -2.82303800     -0.97205900
C      -2.34903300     -1.40440100     -0.76398000
C      -1.29287700     -0.72759700     -0.12587500
C       1.59608500      0.52283700     -0.43861100
C       2.85311300      1.11446800     -0.14920300
C       3.83088700      0.38918700      0.62424700
C       3.58830700     -0.89322700      1.00221700
C      -3.53621800     -0.68853900     -1.16205800
C      -3.72282200      0.60418800     -0.78654200
C      -2.77796200      1.24637400      0.09531800
C      -1.57716300      0.57986100      0.44894100
C      -3.08040400      2.51723200      0.66050800
C      -2.24097000      3.08288400      1.59579700
C      -1.07022400      2.39516200      1.99979600
C      -0.74606000      1.17711000      1.43965300
C       0.73807300      1.20584800     -1.34905500
C       1.07061700      2.44522300     -1.85367800
C       2.29404800      3.06283600     -1.49365100
C       3.17520000      2.40153100     -0.66610900
H       2.99300200     -3.46218700      1.43704600
H       0.94711200     -4.65657800      0.65061600
H      -1.17940600     -4.61275500     -0.53934800
H      -3.10945700     -3.32332400     -1.46186900
H       4.77147900      0.88439000      0.86452200
H       4.33708900     -1.47575300      1.53808100
H      -4.27058300     -1.21357200     -1.77199300
H      -4.59856500      1.16797000     -1.10483000
H      -3.99241900      3.02667900      0.35389000
H      -2.46978700      4.05075400      2.03849800
H      -0.43023200      2.83959000      2.76073900
H       0.14995500      0.65051300      1.77310900
H      -0.18959400      0.73039100     -1.67308000
H       0.39841200      2.95847400     -2.54032400
H       2.53043400      4.04907800     -1.88839400
H       4.13320600      2.84904200     -0.40437600
          42
 Point    6
C       2.32919100     -1.52185700      0.70310300
C       2.16662100     -2.92091500      0.98522800
C       1.03137200     -3.56771700      0.59493200
C      -0.06844400     -2.82296900      0.05235400
C      -0.02307200     -1.40947300      0.02439700
C       1.28068800     -0.77953300      0.12508600
C      -1.20694200     -3.51841100     -0.47939300
C      -2.26707200     -2.81805900     -0.97643500
C      -2.33987300     -1.39804900     -0.77759300
C      -1.29163200     -0.72051300     -0.12709700
C       1.60484700      0.52542100     -0.43843600
C       2.87708000      1.09984300     -0.17871600
C       3.86396900      0.36380300      0.57263900
C       3.60870000     -0.91028600      0.96909600
C      -3.52117100     -0.68241900     -1.19369100
C      -3.71729700      0.60740000     -0.81324700
C      -2.78883500      1.24506600      0.08957400
C      -1.58733100      0.58328200      0.45017100
C      -3.10937200      2.50540400      0.66839100
C      -2.28593200      3.06553200      1.62146200
C      -1.11080900      2.38541800      2.02574600
C      -0.76808300      1.17851200      1.45190800
C       0.73577400      1.22598300     -1.32537600
C       1.07060600      2.46535500     -1.82853800
C       2.31195200      3.06395300     -1.49818700
C       3.20564400      2.38374500     -0.69986500
H       2.98508200     -3.45570700      1.46510200
H       0.92657500     -4.64661900      0.70465600
H      -1.18235400     -4.60686200     -0.51081400
H      -3.09518000     -3.31959300     -1.47471000
H       4.81957800      0.84452600      0.78356300
H       4.36032300     -1.49975300      1.49378300
H      -4.24351200     -1.20575800     -1.81955500
H      -4.58885300      1.17143300     -1.14253400
H      -4.02262700      3.01066800      0.35853500
H      -2.52988400      4.02409500      2.07676100
H      -0.48158800      2.82730600      2.79735200
H       0.13336200      0.65878000      1.78158900
H      -0.20394800      0.76455400     -1.63508900
H       0.38653000      2.99249100     -2.49292100
H       2.55155200      4.04932300     -1.89303800
H       4.17807000      2.81430000     -0.46308700
          42
 Point    7
C       2.33477000     -1.52319500      0.69814700
C       2.16245000     -2.91591100      1.00483800
C       1.02002700     -3.55917500      0.63142600
C      -0.07298100     -2.81384100      0.07682400
C      -0.02153700     -1.40058100      0.03570600
C       1.28541000     -0.77481600      0.12828100
C      -1.20830200     -3.51173600     -0.45896400
C      -2.25917200     -2.81352400     -0.97751000
C      -2.33062600     -1.39206900     -0.78918400
C      -1.29019000     -0.71328500     -0.12745900
C       1.61417100      0.52807300     -0.43869700
C       2.89997600      1.08546000     -0.20705300
C       3.89555400      0.33675800      0.51947100
C       3.62921100     -0.92995600      0.93110000
C      -3.50558800     -0.67690800     -1.22350600
C      -3.71116500      0.61037100     -0.83983600
C      -2.79956500      1.24390200      0.08281000
C      -1.59779900      0.58682700      0.45165100
C      -3.13820600      2.49388100      0.67297000
C      -2.33146700      3.04845500      1.64335900
C      -1.15311300      2.37562400      2.05055900
C      -0.79174300      1.17982200      1.46515500
C       0.73555200      1.24672200     -1.30200200
C       1.07326500      2.48635900     -1.80278800
C       2.33013900      3.06674400     -1.49913800
C       3.23416500      2.36781600     -0.72884500
H       2.97903100     -3.44943300      1.48935700
H       0.90542500     -4.63482100      0.76081000
H      -1.18681600     -4.60049300     -0.47795600
H      -3.08165200     -3.31674600     -1.48316200
H       4.86450400      0.80266600      0.70200900
H       4.38395200     -1.52802200      1.44153600
H      -4.21536000     -1.19892200     -1.86448500
H      -4.57793800      1.17467700     -1.18084700
H      -4.05228100      2.99489400      0.35854800
H      -2.59079800      3.99758800      2.10944200
H      -0.53606400      2.81455800      2.83356700
H       0.11392400      0.66655700      1.79332700
H      -0.21543600      0.79952700     -1.59788600
H       0.37938700      3.02722300     -2.44620000
H       2.57287500      4.05196600     -1.89236200
H       4.21870200      2.78265700     -0.51369700
          42
 Point    8
C       2.33996000     -1.52446000      0.69310800
C       2.15875000     -2.91031600      1.02400500
C       1.00969300     -3.55001400      0.66699900
C      -0.07697100     -2.80474600      0.10075300
C      -0.02006700     -1.39186300      0.04719600
C       1.28982300     -0.76992700      0.13172200
C      -1.20887200     -3.50544600     -0.43901200
C      -2.25084800     -2.80998400     -0.97786900
C      -2.32155600     -1.38729400     -0.79936600
C      -1.28906300     -0.70689700     -0.12696000
C       1.62305100      0.53119100     -0.43808700
C       2.92171400      1.07014700     -0.23674000
C       3.92493700      0.30771300      0.46327600
C       3.64804700     -0.95069300      0.89159100
C      -3.49035100     -0.67294800     -1.25094700
C      -3.70491600      0.61221500     -0.86544600
C      -2.80981800      1.24243500      0.07518600
C      -1.60868000      0.58949700      0.45358700
C      -3.16498400      2.48358500      0.67349400
C      -2.37467400      3.03323100      1.65983600
C      -1.19474300      2.36648900      2.07253300
C      -0.81623800      1.18030400      1.47871900
C       0.73535600      1.27003700     -1.27409400
C       1.07608400      2.51066700     -1.77052000
C       2.34821600      3.07084800     -1.49670100
C       3.26181900      2.35092700     -0.75892800
H       2.97380300     -3.44220200      1.51288500
H       0.88601200     -4.62194700      0.81527700
H      -1.19000600     -4.59431000     -0.44648400
H      -3.06755000     -3.31523900     -1.49054600
H       4.90612100      0.75740400      0.61519700
H       4.40516900     -1.55762300      1.38766500
H      -4.18807400     -1.19417700     -1.90532600
H      -4.56696500      1.17654000     -1.21781400
H      -4.07880900      2.98117700      0.35300600
H      -2.64783600      3.97439900      2.13372900
H      -0.58983900      2.80281500      2.86624100
H       0.09218600      0.67247800      1.80769700
H      -0.22687100      0.83843800     -1.55491400
H       0.37264900      3.06720300     -2.38917200
H       2.59439000      4.05621000     -1.88728400
H       4.25813300      2.74842000     -0.56841900
          42
 Point    9
C       2.34493800     -1.52557500      0.68829000
C       2.15547100     -2.90498100      1.04228900
C       1.00008100     -3.54142200      0.70106700
C      -0.08065800     -2.79612400      0.12411600
C      -0.01876600     -1.38354200      0.05878500
C       1.29387100     -0.76496000      0.13550800
C      -1.20917400     -3.49982200     -0.41926100
C      -2.24285200     -2.80728900     -0.97754200
C      -2.31302500     -1.38341300     -0.80863800
C      -1.28829100     -0.70125400     -0.12598800
C       1.63138900      0.53460400     -0.43677200
C       2.94315700      1.05450200     -0.26686200
C       3.95416700      0.27832600      0.40654200
C       3.66669500     -0.97132700      0.85237000
C      -3.47592500     -0.67007000     -1.27709700
C      -3.69887400      0.61342300     -0.89089200
C      -2.81964300      1.24096400      0.06670800
C      -1.61974300      0.59163200      0.45561200
C      -3.19007200      2.47456200      0.67131100
C      -2.41597700      3.01960200      1.67330000
C      -1.23561400      2.35793400      2.09316200
C      -0.84093000      1.18032300      1.49240500
C       0.73432700      1.29484900     -1.24382800
C       1.07791900      2.53706000     -1.73450800
C       2.36587900      3.07589400     -1.49245800
C       3.28946500      2.33338800     -0.78999400
H       2.96932400     -3.43533700      1.53486900
H       0.86794300     -4.61001800      0.86688200
H      -1.19251000     -4.58881800     -0.41576200
H      -3.05401100     -3.31469200     -1.49678000
H       4.94773200      0.71142200      0.52711200
H       4.42617300     -1.58680000      1.33475400
H      -4.16241700     -1.19101600     -1.94367700
H      -4.55638100      1.17761400     -1.25450400
H      -4.10276400      2.96954800      0.34357100
H      -2.70168100      3.95401600      2.15340700
H      -0.64265000      2.79193900      2.89737000
H       0.06961700      0.67734300      1.82304900
H      -0.23939000      0.87942700     -1.50945700
H       0.36429000      3.11056700     -2.32593300
H       2.61551800      4.06153000     -1.88001400
H       4.29816000      2.71204900     -0.62660800
          42
 Point   10
C       2.35031200     -1.52741600      0.68102300
C       2.15314900     -2.89944200      1.05875100
C       0.99103300     -3.53185800      0.73505100
C      -0.08416200     -2.78700500      0.14783200
C      -0.01730200     -1.37494200      0.07053700
C       1.29816300     -0.76012200      0.13834000
C      -1.20945700     -3.49388400     -0.39850400
C      -2.23471300     -2.80474900     -0.97569800
C      -2.30435100     -1.37978400     -0.81646700
C      -1.28749900     -0.69557500     -0.12402700
C       1.63993400      0.53824600     -0.43559100
C       2.96318300      1.03937900     -0.29612500
C       3.98070800      0.24829800      0.34887600
C       3.68405500     -0.99335700      0.81004500
C      -3.46097800     -0.66754300     -1.30174100
C      -3.69209400      0.61454600     -0.91585000
C      -2.82916300      1.23964700      0.05802700
C      -1.63121500      0.59352700      0.45859300
C      -3.21454000      2.46625300      0.66704100
C      -2.45742700      3.00659000      1.68442400
C      -1.27820400      2.34887700      2.11391600
C      -0.86753400      1.17938500      1.50802700
C       0.73519700      1.31971900     -1.21371100
C       1.08279800      2.56288500     -1.69942500
C       2.38463000      3.08106500     -1.48739400
C       3.31560200      2.31717800     -0.81814200
H       2.96624000     -3.42795800      1.55457200
H       0.85027700     -4.59612200      0.91968100
H      -1.19520800     -4.58276700     -0.38366900
H      -3.04020800     -3.31456500     -1.50116300
H       4.98468200      0.66479300      0.43879800
H       4.44553200     -1.61854900      1.27651200
H      -4.13574400     -1.18832200     -1.98019700
H      -4.54438400      1.17871300     -1.29137000
H      -4.12536900      2.95902400      0.33075000
H      -2.75576400      3.93456200      2.16917900
H      -0.69876300      2.77977800      2.92953500
H       0.04352000      0.68010700      1.84290600
H      -0.24953400      0.92082300     -1.46342500
H       0.36121700      3.15254200     -2.26537700
H       2.63832600      4.06693300     -1.87161100
H       4.33462700      2.67844300     -0.67902900
          42
 Point   11
C       2.35514200     -1.52876100      0.67444500
C       2.15138900     -2.89329200      1.07472700
C       0.98332200     -3.52190300      0.76739000
C      -0.08695800     -2.77801800      0.17056200
C      -0.01589200     -1.36652200      0.08236200
C       1.30206800     -0.75502300      0.14169200
C      -1.20882300     -3.48825000     -0.37885100
C      -2.22609500     -2.80284700     -0.97371200
C      -2.29577200     -1.37697000     -0.82337800
C      -1.28693900     -0.69055400     -0.12143500
C       1.64798000      0.54228400     -0.43362800
C       2.98148100      1.02361600     -0.32677800
C       4.00396200      0.21750200      0.28979800
C       3.69905400     -1.01513300      0.76818600
C      -3.44622900     -0.66600300     -1.32460400
C      -3.68500900      0.61499300     -0.93987800
C      -2.83810400      1.23815200      0.04899300
C      -1.64300500      0.59457400      0.46211300
C      -3.23700500      2.45909700      0.66022400
C      -2.49674800      2.99510400      1.69199900
C      -1.32022700      2.34004800      2.13289300
C      -0.89494300      1.17735200      1.52414000
C       0.73670200      1.34633200     -1.17943300
C       1.08882800      2.59054600     -1.65941300
C       2.40364700      3.08624700     -1.48130900
C       3.34035100      2.29965400     -0.84891800
H       2.96405500     -3.41974500      1.57341000
H       0.83500500     -4.58173300      0.96932900
H      -1.19650400     -4.57689700     -0.35377700
H      -3.02587100     -3.31525500     -1.50511600
H       5.01660900      0.61663500      0.34776600
H       4.46164300     -1.64956100      1.21987800
H      -4.10981700     -1.18693300     -2.01366000
H      -4.53207800      1.17900600     -1.32690700
H      -4.14495300      2.95052400      0.31440800
H      -2.80628900      3.91798300      2.17927700
H      -0.75427600      2.76797700      2.95929400
H       0.01533300      0.68072000      1.86496100
H      -0.25882900      0.96533100     -1.41102700
H       0.36026300      3.19768100     -2.19635300
H       2.66193200      4.07207700     -1.86238300
H       4.36877900      2.64215000     -0.73753800
          42
 Point   12
C       2.35971800     -1.52984300      0.66833400
C       2.15007900     -2.88743000      1.08978500
C       0.97640400     -3.51259900      0.79802200
C      -0.08940900     -2.76952900      0.19260800
C      -0.01465600     -1.35850500      0.09435300
C       1.30555700     -0.74983300      0.14551900
C      -1.20784400     -3.48317600     -0.35978700
C      -2.21764800     -2.80153200     -0.97147900
C      -2.28759000     -1.37480600     -0.82962900
C      -1.28668800     -0.68618700     -0.11832200
C       1.65536200      0.54656100     -0.43102600
C       2.99917900      1.00766100     -0.35784900
C       4.02664900      0.18699300      0.23110100
C       3.71366300     -1.03624100      0.72744900
C      -3.43203500     -0.66515500     -1.34651000
C      -3.67786900      0.61513300     -0.96381200
C      -2.84650700      1.23676700      0.03937600
C      -1.65496300      0.59506200      0.46600300
C      -3.25775200      2.45321000      0.65130100
C      -2.53428500      2.98500700      1.69738800
C      -1.36165800      2.33147200      2.15126500
C      -0.92266500      1.17461200      1.54087900
C       0.73747000      1.37410500     -1.14304900
C       1.09423200      2.61959400     -1.61662200
C       2.42240700      3.09165700     -1.47492700
C       3.36477600      2.28126200     -0.88149400
H       2.96263900     -3.41201000      1.59061100
H       0.82123900     -4.56850600      1.01564900
H      -1.19706200     -4.57162800     -0.32521800
H      -3.01190100     -3.31652700     -1.50856700
H       5.04791400      0.56888600      0.25724200
H       4.47738500     -1.67920300      1.16561000
H      -4.08523500     -1.18657000     -2.04521800
H      -4.51985000      1.17893000     -1.36225500
H      -4.16193000      2.94415500      0.29488200
H      -2.85379400      3.90390600      2.18589000
H      -0.80899400      2.75658800      2.98835800
H      -0.01374800      0.68000200      1.88840900
H      -0.26918600      1.01172800     -1.35593700
H       0.35835100      3.24524500     -2.12217900
H       2.68544000      4.07721600     -1.85331400
H       4.40289000      2.60355200     -0.80056800
          42
 Point   13
C       2.36443000     -1.53138700      0.66041100
C       2.14973200     -2.88140900      1.10315700
C       0.97037700     -3.50262400      0.82813400
C      -0.09149000     -2.76078400      0.21468300
C      -0.01331400     -1.35034600      0.10665300
C       1.30910200     -0.74464400      0.14896100
C      -1.20657600     -3.47796500     -0.34026200
C      -2.20892600     -2.80037500     -0.96819100
C      -2.27926700     -1.37290000     -0.83463900
C      -1.28649000     -0.68193400     -0.11414300
C       1.66272500      0.55123500     -0.42797800
C       3.01518900      0.99246300     -0.38797900
C       4.04619000      0.15629100      0.17153000
C       3.72652100     -1.05821600      0.68420700
C      -3.41718800     -0.66448200     -1.36725900
C      -3.66966200      0.61537000     -0.98741000
C      -2.85432900      1.23559400      0.02969600
C      -1.66731600      0.59513200      0.47097300
C      -3.27729800      2.44838000      0.64057800
C      -2.57143400      2.97591100      1.70075600
C      -1.40468400      2.32237600      2.16989400
C      -0.95243900      1.17055400      1.55961500
C       0.73996200      1.40174800     -1.10619700
C       1.10240100      2.64751800     -1.57509000
C       2.44197900      3.09673200     -1.46859300
C       3.38754400      2.26413300     -0.91174000
H       2.96265700     -3.40379800      1.60565400
H       0.80847400     -4.55378500      1.06237200
H      -1.19740800     -4.56603300     -0.29602700
H      -2.99749100     -3.31814800     -1.51077000
H       5.07407900      0.52086300      0.16581000
H       4.49088500     -1.71079000      1.10661700
H      -4.05943000     -1.18634000     -2.07563900
H      -4.50560900      1.17921600     -1.39813100
H      -4.17664100      2.93952300      0.27224000
H      -2.90078700      3.89148000      2.18893800
H      -0.86710800      2.74376300      3.01856800
H      -0.04695500      0.67635000      1.91660200
H      -0.27728000      1.05828900     -1.29894500
H       0.36138200      3.29049900     -2.05133700
H       2.71038700      4.08172000     -1.84457800
H       4.43345500      2.56781300     -0.85860900
          42
 Point   14
C       2.36864100     -1.53232200      0.65345400
C       2.15006700     -2.87511800      1.11568700
C       0.96579000     -3.49275000      0.85607900
C      -0.09287200     -2.75239900      0.23562300
C      -0.01202600     -1.34250400      0.11898700
C       1.31223300     -0.73925800      0.15311800
C      -1.20454900     -3.47315100     -0.32190700
C      -2.19991100     -2.79974300     -0.96486600
C      -2.27103000     -1.37163800     -0.83901700
C      -1.28645000     -0.67830400     -0.10954800
C       1.66950600      0.55629400     -0.42392800
C       3.02892300      0.97686500     -0.41941300
C       4.06196700      0.12575400      0.11175800
C       3.73698600     -1.07902400      0.64264100
C      -3.40243300     -0.66448500     -1.38666700
C      -3.66093800      0.61521500     -1.01028300
C      -2.86136000      1.23433400      0.01972400
C      -1.67985700      0.59436500      0.47627200
C      -3.29456100      2.44470600      0.62794600
C      -2.60617700      2.96825300      1.70131300
C      -1.44692300      2.31343300      2.18689400
C      -0.98288600      1.16535100      1.57852000
C       0.74359300      1.43083300     -1.06456400
C       1.11220600      2.67662400     -1.52893000
C       2.46140200      3.10118900     -1.46260200
C       3.40792100      2.24560500     -0.94555100
H       2.96371100     -3.39534900      1.61920500
H       0.79832600     -4.53944600      1.10497600
H      -1.19660400     -4.56078500     -0.26903100
H      -2.98290300     -3.32035000     -1.51256300
H       5.09448900      0.47284400      0.07378300
H       4.50135700     -1.74012100      1.05126800
H      -4.03431900     -1.18698600     -2.10366900
H      -4.49077200      1.17907300     -1.43287300
H      -4.18803400      2.93688800      0.24711300
H      -2.94387400      3.88176000      2.18759600
H      -0.92432800      2.73124000      3.04641300
H      -0.08205900      0.67056900      1.94608900
H      -0.28363000      1.10793500     -1.23349000
H       0.36764200      3.33797200     -1.97210600
H       2.73550700      4.08501100     -1.83736100
H       4.45997600      2.52945700     -0.92417100
          42
 Point   15
C       2.37262400     -1.53308100      0.64695700
C       2.15091700     -2.86933500      1.12704800
C       0.96201600     -3.48376800      0.88212100
C      -0.09395100     -2.74467400      0.25586800
C      -0.01092100     -1.33521300      0.13152600
C       1.31490000     -0.73391400      0.15780900
C      -1.20230200     -3.46895000     -0.30416100
C      -2.19112800     -2.79964000     -0.96136800
C      -2.26312700     -1.37093900     -0.84289300
C      -1.28667200     -0.67537200     -0.10445300
C       1.67543600      0.56153700     -0.41912800
C       3.04171200      0.96125300     -0.45110900
C       4.07698800      0.09607800      0.05317500
C       3.74706300     -1.09877100      0.60267700
C      -3.38801300     -0.66492400     -1.40541700
C      -3.65185600      0.61500600     -1.03325900
C      -2.86763100      1.23328000      0.00917900
C      -1.69247100      0.59297800      0.48197800
C      -3.30982800      2.44235900      0.61341700
C      -2.63881900      2.96198100      1.69990800
C      -1.48826500      2.30469200      2.20337400
C      -1.01348400      1.15934100      1.59807100
C       0.74644000      1.46101000     -1.02040100
C       1.12133000      2.70683000     -1.48015000
C       2.48016700      3.10549500     -1.45732300
C       3.42732900      2.22623300     -0.98151000
H       2.96562000     -3.38769800      1.63074200
H       0.78974400     -4.52660900      1.14391400
H      -1.19528600     -4.55620800     -0.24339500
H      -2.96880700     -3.32299000     -1.51393800
H       5.11411300      0.42640700     -0.01596100
H       4.51165300     -1.76737000      0.99914300
H      -4.01036300     -1.18827800     -2.13023100
H      -4.47567000      1.17890600     -1.46763800
H      -4.19659500      2.93644000      0.21920200
H      -2.98359100      3.87448400      2.18319700
H      -0.98025100      2.71911500      3.07355600
H      -0.11779600      0.66336500      1.97685400
H      -0.29109800      1.15982000     -1.16401500
H       0.37311000      3.38744700     -1.88765100
H       2.76001200      4.08762200     -1.83213200
H       4.48544200      2.48895900     -0.99468600
          42
 Point   16
C       2.37663600     -1.53416400      0.63908400
C       2.15281400     -2.86372900      1.13652700
C       0.95933200     -3.47462800      0.90722100
C      -0.09462100     -2.73697600      0.27608100
C      -0.00975000     -1.32796800      0.14457900
C       1.31749900     -0.72850400      0.16275100
C      -1.19986000     -3.46479800     -0.28588500
C      -2.18222500     -2.79975700     -0.95679600
C      -2.25508500     -1.37052900     -0.84567200
C      -1.28693900     -0.67270500     -0.09832400
C       1.68115000      0.56739100     -0.41301900
C       3.05242400      0.94676600     -0.48144000
C       4.08850900      0.06661200     -0.00632100
C       3.75525100     -1.11900200      0.56042700
C      -3.37268400     -0.66535400     -1.42341200
C      -3.64121100      0.61511600     -1.05622900
C      -2.87291900      1.23251400     -0.00153500
C      -1.70533500      0.59109800      0.48855700
C      -3.32309300      2.44131500      0.59715100
C      -2.67028800      2.95693900      1.69654500
C      -1.53085000      2.29549700      2.21983200
C      -1.04608300      1.15187300      1.61920400
C       0.75093000      1.49078300     -0.97514500
C       1.13270500      2.73545000     -1.43286600
C       2.49888300      3.10943600     -1.45229900
C       3.44444900      2.20835900     -1.01524600
H       2.96916300     -3.38011700      1.63954200
H       0.78257100     -4.51307700      1.18248200
H      -1.19393000     -4.55153100     -0.21687200
H      -2.95453600     -3.32600800     -1.51393300
H       5.12813900      0.37982900     -0.10775600
H       4.51965600     -1.79623600      0.94206700
H      -3.98475100     -1.18938400     -2.15637600
H      -4.45762500      1.17953200     -1.50355100
H      -4.20165200      2.93821300      0.18824100
H      -3.02167000      3.86930800      2.17534100
H      -1.03949100      2.70556200      3.10149300
H      -0.15812800      0.65279000      2.01181900
H      -0.29605100      1.21117100     -1.09181600
H       0.38291200      3.43372100     -1.80731200
H       2.78481000      4.08953500     -1.82777000
H       4.50673700      2.45176400     -1.06048600
          42
 Point   17
C       2.38025900     -1.53473900      0.63219400
C       2.15540300     -2.85836800      1.14471900
C       0.95795500     -3.46612000      0.92983900
C      -0.09474200     -2.72987700      0.29513300
C      -0.00861700     -1.32123000      0.15756200
C       1.31970900     -0.72309000      0.16853200
C      -1.19704000     -3.46112800     -0.26860900
C      -2.17337700     -2.80031900     -0.95213700
C      -2.24713100     -1.37062100     -0.84810400
C      -1.28720700     -0.67061400     -0.09214900
C       1.68624100      0.57358700     -0.40553600
C       3.06028100      0.93221500     -0.51270400
C       4.09615400      0.03831100     -0.06469600
C       3.76135800     -1.13730800      0.52072700
C      -3.35738000     -0.66622100     -1.44042400
C      -3.62983900      0.61507100     -1.07869200
C      -2.87706400      1.23178600     -0.01269200
C      -1.71808100      0.58850000      0.49495000
C      -3.33363400      2.44135200      0.57943300
C      -2.69877800      2.95318700      1.69083700
C      -1.57211700      2.28648300      2.23446800
C      -1.07901400      1.14337400      1.63984900
C       0.75727800      1.52166500     -0.92411500
C       1.14598200      2.76460300     -1.38123600
C       2.51626500      3.11232000     -1.44887200
C       3.45767100      2.18932600     -1.05289300
H       2.97371300     -3.37312700      1.64614600
H       0.77783200     -4.50074900      1.21645900
H      -1.19201000     -4.54732000     -0.19216700
H      -2.94066200     -3.32941700     -1.51332500
H       5.13634500      0.33505300     -0.19766000
H       4.52541900     -1.82156600      0.89003400
H      -3.95991200     -1.19107600     -2.18053700
H      -4.43878400      1.18000400     -1.53841200
H      -4.20300500      2.94175700      0.15575300
H      -3.05516000      3.86647600      2.16414000
H      -1.09714500      2.69242800      3.12671000
H      -0.19996600      0.64035000      2.04673200
H      -0.29754300      1.26569700     -1.00764900
H       0.39697000      3.48121400     -1.71882200
H       2.80785600      4.08956500     -1.82726700
H       4.52153600      2.41255500     -1.13421100
          42
 Point   18
C       2.38376000     -1.53542700      0.62552400
C       2.15855500     -2.85386000      1.15143200
C       0.95729700     -3.45876900      0.95052100
C      -0.09469900     -2.72362800      0.31361100
C      -0.00764700     -1.31525300      0.17071100
C       1.32148000     -0.71801300      0.17475100
C      -1.19434700     -3.45813000     -0.25163700
C      -2.16499300     -2.80137800     -0.94712300
C      -2.23946500     -1.37118900     -0.85018600
C      -1.28760700     -0.66923200     -0.08565300
C       1.69033900      0.57978000     -0.39725700
C       3.06690700      0.91793300     -0.54389400
C       4.10305900      0.01145400     -0.12113800
C       3.76723700     -1.15434300      0.48275600
C      -3.34220100     -0.66727600     -1.45706900
C      -3.61778000      0.61524900     -1.10152100
C      -2.88012700      1.23141200     -0.02458300
C      -1.73066600      0.58530600      0.50152100
C      -3.34186700      2.44273100      0.55998600
C      -2.72474900      2.95078500      1.68330500
C      -1.61190000      2.27775100      2.24838400
C      -1.11167600      1.13414400      1.66082000
C       0.76290600      1.55343800     -0.86993500
C       1.15824500      2.79439900     -1.32733700
C       2.53200000      3.11483600     -1.44698000
C       3.46907200      2.16994800     -1.09216400
H       2.97915500     -3.36736400      1.65036000
H       0.77448700     -4.49019800      1.24684300
H      -1.19011500     -4.54385000     -0.16837300
H      -2.92763900     -3.33315900     -1.51202500
H       5.14401000      0.29310400     -0.28351900
H       4.53142400     -1.84439200      0.84146600
H      -3.93611700     -1.19308300     -2.20355500
H      -4.41938700      1.18078600     -1.57350800
H      -4.20145800      2.94736600      0.12101200
H      -3.08495000      3.86585500      2.15036800
H      -1.15259700      2.67988400      3.15087000
H      -0.24182200      0.62665600      2.08234100
H      -0.29972600      1.32314900     -0.91654300
H       0.41008300      3.52987600     -1.62560600
H       2.82887000      4.08851100     -1.83027800
H       4.53414400      2.37245500     -1.21134000
          42
 Point   19
C       2.38737700     -1.53655500      0.61765800
C       2.16286700     -2.85014000      1.15583200
C       0.95777200     -3.45182400      0.97002100
C      -0.09432600     -2.71764200      0.33228300
C      -0.00655800     -1.30953200      0.18458000
C       1.32323600     -0.71300400      0.18180400
C      -1.19187400     -3.45525900     -0.23351500
C      -2.15687300     -2.80266200     -0.94057600
C      -2.23158700     -1.37199900     -0.85126000
C      -1.28783300     -0.66812900     -0.07833200
C       1.69416600      0.58663300     -0.38671700
C       3.07104100      0.90520900     -0.57298800
C       4.10625300     -0.01475900     -0.17857600
C       3.77138000     -1.17167000      0.44227900
C      -3.32575900     -0.66814200     -1.47331700
C      -3.60347000      0.61602400     -1.12483600
C      -2.88156600      1.23154500     -0.03705000
C      -1.74305100      0.58186200      0.50832200
C      -3.34717400      2.44555800      0.53873500
C      -2.74875300      2.94962500      1.67386400
C      -1.65244200      2.26876000      2.26177200
C      -1.14595300      1.12378200      1.68246200
C       0.77012000      1.58395700     -0.81451400
C       1.17173700      2.82199000     -1.27509100
C       2.54608600      3.11733200     -1.44457900
C       3.47701200      2.15258400     -1.12880300
H       2.98648000     -3.36274400      1.65068000
H       0.77270500     -4.47979500      1.27635500
H      -1.18895300     -4.54033000     -0.14253000
H      -2.91515400     -3.33728600     -1.50850100
H       5.14560900      0.25127800     -0.37269300
H       4.53549300     -1.86880000      0.78686900
H      -3.91017200     -1.19471800     -2.22665300
H      -4.39579600      1.18282600     -1.61056100
H      -4.19495700      2.95546900      0.08318100
H      -3.11202300      3.86730300      2.13342900
H      -1.21121400      2.66608400      3.17525700
H      -0.28825100      0.60995600      2.12074000
H      -0.29885000      1.37793000     -0.82377800
H       0.42625300      3.57421100     -1.53733300
H       2.84780100      4.08742300     -1.83320700
H       4.54116800      2.33638800     -1.28384100
          42
 Point   20
C       2.39082500     -1.53756800      0.61046900
C       2.16773200     -2.84717300      1.15869000
C       0.95918000     -3.44582000      0.98719100
C      -0.09362700     -2.71237100      0.34991700
C      -0.00539000     -1.30446000      0.19815000
C       1.32481900     -0.70839300      0.18956300
C      -1.18950600     -3.45280900     -0.21603600
C      -2.14921300     -2.80418900     -0.93372000
C      -2.22375400     -1.37306400     -0.85218100
C      -1.28766500     -0.66731800     -0.07153000
C       1.69755000      0.59348500     -0.37466100
C       3.07203400      0.89279200     -0.60237600
C       4.10594900     -0.03896300     -0.23381900
C       3.77401300     -1.18679300      0.40450700
C      -3.30940100     -0.66924900     -1.48869900
C      -3.58829200      0.61686100     -1.14779000
C      -2.88126700      1.23207300     -0.05034800
C      -1.75453500      0.57831900      0.51396300
C      -3.34951800      2.44928500      0.51648000
C      -2.76951800      2.94945600      1.66261000
C      -1.69121000      2.26008600      2.27307000
C      -1.18001200      1.11288900      1.70268500
C       0.78012400      1.61458300     -0.75281300
C       1.18679200      2.84897700     -1.21933200
C       2.55675900      3.11851600     -1.44441300
C       3.47954500      2.13484600     -1.16837000
H       2.99448900     -3.35942800      1.64854100
H       0.77268600     -4.47093000      1.30176900
H      -1.18796600     -4.53721600     -0.11791500
H      -2.90372300     -3.34149100     -1.50400500
H       5.14214500      0.21296200     -0.45778900
H       4.53835500     -1.88916800      0.73741500
H      -3.88541900     -1.19687000     -2.24764900
H      -4.37152400      1.18479000     -1.64639000
H      -4.18487000      2.96473900      0.04493300
H      -3.13451100      3.87026600      2.11445700
H      -1.26775900      2.65281500      3.19663200
H      -0.33559000      0.59212200      2.15753700
H      -0.29114700      1.43476100     -0.71523900
H       0.44695000      3.61805500     -1.44243600
H       2.86150800      4.08427000     -1.84121700
H       4.53951600      2.30010900     -1.36205700
          42
 Point   21
C       2.39438000     -1.53919900      0.60295800
C       2.17316300     -2.84539700      1.15993600
C       0.96108300     -3.44108600      1.00280500
C      -0.09295900     -2.70806200      0.36727500
C      -0.00429200     -1.30033200      0.21172800
C       1.32616600     -0.70462700      0.19729000
C      -1.18769000     -3.45101800     -0.19829600
C      -2.14232000     -2.80611300     -0.92606700
C      -2.21616300     -1.37445000     -0.85274100
C      -1.28733600     -0.66702700     -0.06471400
C       1.69999700      0.59981000     -0.36230900
C       3.07177600      0.88087500     -0.63144300
C       4.10520100     -0.06142700     -0.28690100
C       3.77674000     -1.20082100      0.36796600
C      -3.29309800     -0.67038700     -1.50374500
C      -3.57223000      0.61814400     -1.17128800
C      -2.87950700      1.23322700     -0.06469800
C      -1.76535400      0.57456300      0.51918600
C      -3.34958000      2.45425100      0.49268900
C      -2.78777900      2.95053700      1.64973300
C      -1.72801300      2.25204200      2.28329700
C      -1.21325300      1.10178900      1.72263200
C       0.78968100      1.64531200     -0.68786400
C       1.20007300      2.87570300     -1.16218400
C       2.56443000      3.11950200     -1.44546800
C       3.47968900      2.11784600     -1.20781400
H       3.00331500     -3.35766100      1.64404500
H       0.77358700     -4.46378800      1.32448800
H      -1.18764000     -4.53483400     -0.09346600
H      -2.89355600     -3.34588200     -1.49829100
H       5.13876800      0.17822600     -0.53795700
H       4.54201700     -1.90721400      0.69070200
H      -3.86181700     -1.19923700     -2.26739400
H      -4.34667300      1.18722900     -1.68250800
H      -4.17245000      2.97554600      0.00512000
H      -3.15377200      3.87488600      2.09365100
H      -1.32139700      2.64058000      3.21653000
H      -0.38217600      0.57376300      2.19419800
H      -0.28215500      1.49475500     -0.59534200
H       0.46587600      3.66150200     -1.34454600
H       2.87120800      4.08049100     -1.85204100
H       4.53533400      2.26548800     -1.43961200
          42
 Point   22
C       2.39833900     -1.54176000      0.59392900
C       2.17985700     -2.84507500      1.15846600
C       0.96407300     -3.43714700      1.01740100
C      -0.09201700     -2.70416100      0.38529300
C      -0.00287400     -1.29665500      0.22617600
C       1.32782700     -0.70141500      0.20598200
C      -1.18655000     -3.44929700     -0.17842000
C      -2.13615100     -2.80814700     -0.91597000
C      -2.20821600     -1.37594600     -0.85206600
C      -1.28632800     -0.66676400     -0.05730400
C       1.70231700      0.60629100     -0.34731400
C       3.06893100      0.87079000     -0.65762900
C       4.10085200     -0.08297600     -0.34138200
C       3.77805100     -1.21546900      0.32787800
C      -3.27528100     -0.67132000     -1.51836300
C      -3.55319600      0.62018700     -1.19570100
C      -2.87517900      1.23538300     -0.08028500
C      -1.77495900      0.57148200      0.52359800
C      -3.34615500      2.46070800      0.46689800
C      -2.80396300      2.95280300      1.63497800
C      -1.76527900      2.24440200      2.29226600
C      -1.24721800      1.09082800      1.74184800
C       0.80032400      1.67282000     -0.62311800
C       1.21270200      2.89943800     -1.10614600
C       2.56848500      3.12122900     -1.44342500
C       3.47535000      2.10369600     -1.24323000
H       3.01413200     -3.35814300      1.63454500
H       0.77594600     -4.45727300      1.34656000
H      -1.18898000     -4.53225200     -0.06537000
H      -2.88494300     -3.35051900     -1.48882500
H       5.12917900      0.14409500     -0.62263800
H       4.54412400     -1.92747900      0.63566600
H      -3.83602200     -1.20152900     -2.28687700
H      -4.31654300      1.19101000     -1.72117800
H      -4.15422000      2.98865300     -0.03785700
H      -3.17047800      3.88108700      2.07018000
H      -1.37821500      2.62786800      3.23579200
H      -0.43219000      0.55439500      2.23140400
H      -0.26977900      1.54686800     -0.48037800
H       0.48524800      3.69939900     -1.25143100
H       2.87573700      4.07835000     -1.85875800
H       4.52435700      2.23608400     -1.51179700
          42
 Point   23
C       2.40236900     -1.54468600      0.58503200
C       2.18689000     -2.84570600      1.15563700
C       0.96764500     -3.43409300      1.03031900
C      -0.09087700     -2.70094100      0.40254300
C      -0.00121300     -1.29366500      0.24012900
C       1.32967500     -0.69910300      0.21488200
C      -1.18571900     -3.44783900     -0.15881900
C      -2.13066600     -2.81012600     -0.90520200
C      -2.20027700     -1.37743600     -0.85103300
C      -1.28443500     -0.66634600     -0.05076600
C       1.70453400      0.61201200     -0.33143900
C       3.06319400      0.86117200     -0.68374600
C       4.09366100     -0.10232300     -0.39367800
C       3.77833000     -1.22826500      0.28969800
C      -3.25783000     -0.67249500     -1.53178700
C      -3.53342800      0.62224100     -1.21962300
C      -2.86850900      1.23843600     -0.09704500
C      -1.78238200      0.56955500      0.52583100
C      -3.34019700      2.46781600      0.44042200
C      -2.81758300      2.95584500      1.61885300
C      -1.80088100      2.23756800      2.29883000
C      -1.28024100      1.08049900      1.75853400
C       0.81420300      1.69847400     -0.55338400
C       1.22585500      2.92119100     -1.04726100
C       2.56747900      3.12192800     -1.44213400
C       3.46526800      2.09030500     -1.27947800
H       3.02513700     -3.36002900      1.62315400
H       0.77931400     -4.45201400      1.36590300
H      -1.19077400     -4.52991000     -0.03813600
H      -2.87770500     -3.35484200     -1.47806100
H       5.11565900      0.11409700     -0.70284500
H       4.54568000     -1.94421000      0.58442300
H      -3.81212700     -1.20460200     -2.30358100
H      -4.28643000      1.19428300     -1.75812400
H      -4.13357500      3.00198100     -0.08032000
H      -3.18415100      3.88789700      2.04580300
H      -1.43336400      2.61599100      3.25186200
H      -0.48228200      0.53543900      2.26556100
H      -0.24649500      1.59655800     -0.35085700
H       0.50803900      3.73477000     -1.15354700
H       2.87232500      4.07512800     -1.86792400
H       4.50467500      2.20899900     -1.58566900
          42
 Point   24
C       2.40665700     -1.54857200      0.57516800
C       2.19443700     -2.84756500      1.15125700
C       0.97152300     -3.43215900      1.04223800
C      -0.08988800     -2.69864000      0.41979500
C       0.00042200     -1.29163900      0.25390700
C       1.33147300     -0.69797800      0.22303200
C      -1.18560000     -3.44705100     -0.13849000
C      -2.12613300     -2.81252000     -0.89316800
C      -2.19268700     -1.37926000     -0.84927800
C      -1.28223900     -0.66623200     -0.04429800
C       1.70601700      0.61671200     -0.31617600
C       3.05652800      0.85214700     -0.70949200
C       4.08643500     -0.12011300     -0.44430500
C       3.77893300     -1.24044500      0.25181700
C      -3.24073900     -0.67396100     -1.54447500
C      -3.51314300      0.62445700     -1.24381500
C      -2.86040700      1.24217200     -0.11492400
C      -1.78859700      0.56808400      0.52706800
C      -3.33267400      2.47581400      0.41261900
C      -2.82926200      2.96020000      1.60109200
C      -1.83434100      2.23216800      2.30377300
C      -1.31194900      1.07097100      1.77420700
C       0.82776500      1.72300600     -0.48189200
C       1.23684200      2.94208100     -0.98710100
C       2.56328000      3.12315500     -1.43982900
C       3.45318200      2.07859900     -1.31385200
H       3.03684400     -3.36333800      1.60976300
H       0.78316900     -4.44806500      1.38381300
H      -1.19338000     -4.52831300     -0.01051800
H      -2.87188600     -3.35939200     -1.46564600
H       5.10285400      0.08740300     -0.77875300
H       4.54830900     -1.95941000      0.53448200
H      -3.78972000     -1.20830900     -2.31852400
H      -4.25635400      1.19756000     -1.79496600
H      -4.11202000      3.01583600     -0.12372900
H      -3.19575900      3.89605400      2.01985600
H      -1.48537600      2.60610500      3.26586000
H      -0.53101900      0.51726200      2.29883900
H      -0.21965000      1.64630800     -0.21227000
H       0.52860200      3.76878500     -1.05337400
H       2.86459500      4.07276800     -1.87595600
H       4.48319500      2.18529600     -1.65603200
          42
 Point   25
C       2.41135500     -1.55377700      0.56307400
C       2.20318200     -2.85121400      1.14373500
C       0.97653700     -3.43126100      1.05313900
C      -0.08858300     -2.69688400      0.43796900
C       0.00243500     -1.29023600      0.26859700
C       1.33376700     -0.69784200      0.23162800
C      -1.18628600     -3.44639700     -0.11537600
C      -2.12266700     -2.81508400     -0.87788800
C      -2.18488300     -1.38135100     -0.84569500
C      -1.27925100     -0.66612400     -0.03697600
C       1.70750000      0.62087100     -0.29894000
C       3.04779600      0.84506000     -0.73190000
C       4.07593300     -0.13683300     -0.49663900
C       3.77804700     -1.25367400      0.20927300
C      -3.22241200     -0.67572500     -1.55621100
C      -3.49009400      0.62679500     -1.26860100
C      -2.84961500      1.24684500     -0.13398600
C      -1.79296400      0.56801100      0.52726800
C      -3.32210700      2.48498600      0.38273600
C      -2.83929100      2.96602000      1.58105400
C      -1.86780100      2.22860300      2.30630700
C      -1.34312900      1.06346000      1.78771500
C       0.84122300      1.74263500     -0.41338800
C       1.24588300      2.95982400     -0.92707100
C       2.55562800      3.12614300     -1.43120800
C       3.43744700      2.07060900     -1.34210300
H       3.05034700     -3.36932900      1.59062400
H       0.78857100     -4.44503400      1.40106900
H      -1.19785700     -4.52648800      0.02155300
H      -2.86837000     -3.36418100     -1.44825300
H       5.08417000      0.06195500     -0.85923100
H       4.54894500     -1.97748600      0.47441300
H      -3.76571600     -1.21279200     -2.33232300
H      -4.22151600      1.20106400     -1.83382100
H      -4.08546800      3.03101100     -0.17008100
H      -3.20566300      3.90584800      1.99088300
H      -1.53954800      2.59800200      3.27731000
H      -0.58074800      0.50135300      2.33014800
H      -0.19189400      1.68325600     -0.08889600
H       0.54709000      3.79684000     -0.95707400
H       2.85198900      4.07404000     -1.87446900
H       4.45644500      2.16815900     -1.71843800
          42
 Point   26
C       2.41602100     -1.55935500      0.55076200
C       2.21197400     -2.85557900      1.13512700
C       0.98195700     -3.43100900      1.06277100
C      -0.08708300     -2.69570700      0.45542600
C       0.00463700     -1.28943600      0.28266700
C       1.33628900     -0.69867300      0.23996000
C      -1.18709800     -3.44599000     -0.09257300
C      -2.11987300     -2.81759700     -0.86191300
C      -2.17735900     -1.38353900     -0.84142200
C      -1.27553700     -0.66585400     -0.03035300
C       1.70908700      0.62395500     -0.28153600
C       3.03674600      0.83853700     -0.75410900
C       4.06307200     -0.15150000     -0.54722000
C       3.77614000     -1.26530700      0.16798700
C      -3.20505400     -0.67814700     -1.56635000
C      -3.46724600      0.62844200     -1.29237700
C      -2.83714800      1.25202700     -0.15380600
C      -1.79488100      0.56949000      0.52537300
C      -3.31015500      2.49424500      0.35240700
C      -2.84756800      2.97263400      1.55958600
C      -1.89931900      2.22675100      2.30586400
C      -1.37230400      1.05792100      1.79780500
C       0.85773300      1.75927400     -0.34208300
C       1.25569200      2.97528500     -0.86393400
C       2.54390900      3.12874300     -1.42110800
C       3.41703100      2.06390100     -1.36990600
H       3.06354200     -3.37621800      1.57028500
H       0.79464100     -4.44284500      1.41649700
H      -1.20234000     -4.52490000      0.05256900
H      -2.86603300     -3.36865500     -1.42977000
H       5.06235100      0.04030000     -0.93593000
H       4.54889300     -1.99255600      0.41704200
H      -3.74413300     -1.21851200     -2.34305900
H      -4.18806900      1.20305100     -1.87033800
H      -4.05839800      3.04524600     -0.21545500
H      -3.21395500      3.91603400      1.96096300
H      -1.59147500      2.59192000      3.28480200
H      -0.62876900      0.48791200      2.35718800
H      -0.15374800      1.71348300      0.04101800
H       0.56899900      3.82178100     -0.85625500
H       2.83287400      4.07542600     -1.87165900
H       4.42245400      2.15412600     -1.78083700
          42
 Point   27
C       2.42077200     -1.56568200      0.53732900
C       2.22106100     -2.86084200      1.12509400
C       0.98754100     -3.43159700      1.07150200
C      -0.08578000     -2.69529000      0.47267600
C       0.00667100     -1.28943300      0.29623700
C       1.33865800     -0.70048200      0.24712400
C      -1.18848500     -3.44634000     -0.06925500
C      -2.11809300     -2.82078600     -0.84478900
C      -2.17059700     -1.38636200     -0.83624400
C      -1.27188600     -0.66598800     -0.02380900
C       1.71016600      0.62616900     -0.26515500
C       3.02527700      0.83268100     -0.77591500
C       4.05057500     -0.16479400     -0.59623100
C       3.77455800     -1.27640800      0.12697100
C      -3.18890800     -0.68150000     -1.57526800
C      -3.44516500      0.62940600     -1.31565700
C      -2.82426700      1.25727300     -0.17420200
C      -1.79586300      0.57141500      0.52251400
C      -3.29771900      2.50378300      0.32114400
C      -2.85412100      2.98067300      1.53627400
C      -1.92815000      2.22706200      2.30315900
C      -1.39970800      1.05382600      1.80627000
C       0.87425000      1.77469500     -0.27011400
C       1.26439300      2.99023700     -0.79903700
C       2.53044600      3.13237500     -1.40871100
C       3.39567200      2.05896800     -1.39552300
H       3.07718000     -3.38404500      1.54835300
H       0.80099700     -4.44156800      1.43089200
H      -1.20722000     -4.52415500      0.08372600
H      -2.86501200     -3.37373800     -1.40986600
H       5.04180400      0.02139700     -1.00865700
H       4.54978100     -2.00643400      0.36090900
H      -3.72472500     -1.22555900     -2.35163500
H      -4.15624600      1.20401200     -1.90579000
H      -4.03212200      3.05893800     -0.26105000
H      -3.22041100      3.92775500      1.92910200
H      -1.63919800      2.58895600      3.28927800
H      -0.67468800      0.47621200      2.38257800
H      -0.11196500      1.74170900      0.17507000
H       0.59004600      3.84582600     -0.75257400
H       2.81137600      4.07843000     -1.86563800
H       4.38774600      2.14321500     -1.83979100
          42
 Point   28
C       2.42546200     -1.57310900      0.52140800
C       2.23088800     -2.86776200      1.11154000
C       0.99418200     -3.43333900      1.07854800
C      -0.08410800     -2.69549200      0.49032800
C       0.00892200     -1.29008700      0.31028000
C       1.34131400     -0.70315600      0.25422800
C      -1.19053200     -3.44702000     -0.04350600
C      -2.11764000     -2.82445400     -0.82445800
C      -2.16423700     -1.38988500     -0.82902600
C      -1.26794300     -0.66645900     -0.01633900
C       1.71132900      0.62787700     -0.24723400
C       3.01263900      0.82895500     -0.79390300
C       4.03530300     -0.17651700     -0.64601600
C       3.77110700     -1.28822700      0.08171700
C      -3.17275100     -0.68606500     -1.58256500
C      -3.42210000      0.62918600     -1.33851300
C      -2.80999700      1.26239000     -0.19506200
C      -1.79557400      0.57419800      0.51906500
C      -3.28323600      2.51366900      0.28809800
C      -2.85867200      2.99046900      1.51007400
C      -1.95525900      2.23052500      2.29689300
C      -1.42526400      1.05279400      1.81185800
C       0.88990500      1.78569200     -0.20216200
C       1.27146900      3.00262000     -0.73437200
C       2.51565000      3.13808800     -1.38941200
C       3.37276700      2.05794500     -1.41374700
H       3.09189100     -3.39430500      1.52037200
H       0.80898400     -4.44151100      1.44356800
H      -1.21342200     -4.52335000      0.11877300
H      -2.86666600     -3.37933800     -1.38483300
H       5.01622000      0.00468800     -1.08401600
H       4.54774800     -2.02269800      0.29553300
H      -3.70530100     -1.23446700     -2.35809500
H      -4.12236500      1.20332400     -1.94162900
H      -4.00269600      3.07241500     -0.30889900
H      -3.22444400      3.94166400      1.89320900
H      -1.68558100      2.59043400      3.28903100
H      -0.71886300      0.46892900      2.40449900
H      -0.07342000      1.75894900      0.29186700
H       0.60833200      3.86452800     -0.65295600
H       2.78827700      4.08532300     -1.84901100
H       4.35096600      2.13904000     -1.88844200
          42
 Point   29
C       2.42980600     -1.58054500      0.50545000
C       2.24033900     -2.87493400      1.09730300
C       1.00097900     -3.43544100      1.08444800
C      -0.08228400     -2.69615700      0.50698300
C       0.01117200     -1.29121700      0.32341100
C       1.34396700     -0.70652600      0.26093800
C      -1.19247000     -3.44798700     -0.01856300
C      -2.11775700     -2.82818900     -0.80391800
C      -2.15853000     -1.39367800     -0.82128600
C      -1.26369100     -0.66692900     -0.00970100
C       1.71257800      0.62871500     -0.22923100
C       2.99810700      0.82589700     -0.81149300
C       4.01804700     -0.18615800     -0.69385200
C       3.76656800     -1.29822800      0.03806400
C      -3.15834900     -0.69167400     -1.58820900
C      -3.40065600      0.62758500     -1.35993100
C      -2.79540500      1.26720800     -0.21618400
C      -1.79323600      0.57813600      0.51369300
C      -3.26876200      2.52283000      0.25500200
C      -2.86171400      3.00085600      1.48244800
C      -1.97889600      2.23634400      2.28719500
C      -1.44712100      1.05454500      1.81347800
C       0.90864700      1.79382700     -0.13191100
C       1.28008100      3.01277300     -0.66666900
C       2.49813800      3.14343000     -1.36814700
C       3.34623100      2.05810900     -1.43118100
H       3.10572000     -3.40476700      1.49198600
H       0.81734300     -4.44195100      1.45471900
H      -1.21908600     -4.52285500      0.15215800
H      -2.86915300     -3.38479800     -1.35939300
H       4.98816900     -0.00845300     -1.15558300
H       4.54485000     -2.03579200      0.23322100
H      -3.68884300     -1.24486300     -2.36169900
H      -4.09164700      1.20033200     -1.97465600
H      -3.97510400      3.08370100     -0.35516500
H      -3.22738000      3.95566800      1.85635100
H      -1.72696700      2.59510800      3.28415800
H      -0.75826800      0.46564800      2.42120700
H      -0.02543800      1.76947400      0.41278500
H       0.63078100      3.88012700     -0.54913000
H       2.76058000      4.09226400     -1.83027400
H       4.30828500      2.13764400     -1.93665800
          42
 Point   30
C       2.43404400     -1.58831600      0.48868800
C       2.24980300     -2.88254500      1.08203100
C       1.00776500     -3.43804900      1.08945900
C      -0.08068100     -2.69738200      0.52302500
C       0.01312500     -1.29292600      0.33562000
C       1.34631900     -0.71051000      0.26637200
C      -1.19481100     -3.44970800      0.00637800
C      -2.11889300     -2.83276600     -0.78268100
C      -2.15396100     -1.39829200     -0.81282700
C      -1.25985400     -0.66790400     -0.00342400
C       1.71350500      0.62904100     -0.21226900
C       2.98358000      0.82354600     -0.82862800
C       4.00152100     -0.19448200     -0.73978800
C       3.76239900     -1.30748400     -0.00464200
C      -3.14599400     -0.69859400     -1.59240000
C      -3.38124400      0.62474100     -1.38024500
C      -2.78142100      1.27153900     -0.23740200
C      -1.79042200      0.58222400      0.50738000
C      -3.25458000      2.53178100      0.22150500
C      -2.86294600      3.01248600      1.45315200
C      -1.99918700      2.24438200      2.27504200
C      -1.46681000      1.05775400      1.81313500
C       0.92784700      1.80115900     -0.06119400
C       1.28860100      3.02270700     -0.59736300
C       2.48009100      3.14977500     -1.34475600
C       3.31956600      2.05979500     -1.44675500
H       3.11962500     -3.41560100      1.46272100
H       0.82578700     -4.44292600      1.46494700
H      -1.22474200     -4.52321600      0.18515000
H      -2.87282900     -3.39116200     -1.33303600
H       4.96188400     -0.01924400     -1.22300300
H       4.54284300     -2.04756300      0.17309600
H      -3.67529900     -1.25694500     -2.36298900
H      -4.06408000      1.19567000     -2.00579600
H      -3.94944200      3.09385300     -0.40085500
H      -3.22819400      3.97111900      1.81770300
H      -1.76301200      2.60308700      3.27595100
H      -0.79490800      0.46419000      2.43568600
H       0.02615600      1.77809100      0.53649400
H       0.65364400      3.89520700     -0.44268900
H       2.73204400      4.10066500     -1.80861500
H       4.26565400      2.13870300     -1.98208900
          42
 Point   31
C       2.43770700     -1.59671000      0.46961800
C       2.25941300     -2.89139300      1.06327100
C       1.01533000     -3.44176400      1.09226600
C      -0.07876700     -2.69926400      0.53882200
C       0.01506800     -1.29529300      0.34771900
C       1.34861200     -0.71505000      0.27140000
C      -1.19765000     -3.45192800      0.03308600
C      -2.12148600     -2.83805300     -0.75866100
C      -2.15036700     -1.40390200     -0.80251300
C      -1.25618900     -0.66948100      0.00344900
C       1.71439100      0.62909600     -0.19403600
C       2.96861700      0.82345900     -0.84154000
C       3.98289400     -0.20064000     -0.78511000
C       3.75620200     -1.31677600     -0.05040200
C      -3.13491700     -0.70732600     -1.59459800
C      -3.36274900      0.61982100     -1.39937100
C      -2.76732700      1.27483300     -0.25865400
C      -1.78678700      0.58652600      0.50054500
C      -3.23935700      2.54022900      0.18660500
C      -2.86146600      3.02579400      1.42075500
C      -2.01546700      2.25616200      2.25888600
C      -1.48308000      1.06432400      1.80975800
C       0.94563600      1.80493900      0.00532300
C       1.29559800      3.03045800     -0.52898600
C       2.46217800      3.15796900     -1.31509600
C       3.29319000      2.06519100     -1.45433800
H       3.13374900     -3.42819200      1.42782700
H       0.83567700     -4.44523300      1.47258700
H      -1.23110900     -4.52371500      0.22107700
H      -2.87922500     -3.39824900     -1.30195100
H       4.93183700     -0.02685700     -1.29054700
H       4.53747200     -2.06062900      0.10585500
H      -3.66343000     -1.27149400     -2.36148500
H      -4.03741700      1.18812600     -2.03591000
H      -3.92284200      3.10236400     -0.44800400
H      -3.22547200      3.98881500      1.77463100
H      -1.79342300      2.61704800      3.26211100
H      -0.82694200      0.46804600      2.44623300
H       0.07280600      1.77888000      0.64494600
H       0.67315000      3.90556800     -0.34117200
H       2.70418500      4.11230800     -1.77725200
H       4.22395200      2.14607700     -2.01563000
          42
 Point   32
C       2.44075900     -1.60473500      0.45070100
C       2.26833700     -2.90000300      1.04426700
C       1.02282700     -3.44553200      1.09424400
C      -0.07680600     -2.70148000      0.55362900
C       0.01681900     -1.29801800      0.35882900
C       1.35061700     -0.71997000      0.27596100
C      -1.20028700     -3.45439800      0.05884500
C      -2.12449300     -2.84343900     -0.73475100
C      -2.14757300     -1.40981500     -0.79194200
C      -1.25254700     -0.67117200      0.00941000
C       1.71505300      0.62854600     -0.17590000
C       2.95209800      0.82414000     -0.85376700
C       3.96260600     -0.20473700     -0.82834900
C       3.74889700     -1.32413300     -0.09439100
C      -3.12578400     -0.71706700     -1.59544100
C      -3.34649900      0.61342200     -1.41706300
C      -2.75379000      1.27735700     -0.27989600
C      -1.78156300      0.59146600      0.49197700
C      -3.22509100      2.54741300      0.15200900
C      -2.85872300      3.03919900      1.38728800
C      -2.02707400      2.27021900      2.23952700
C      -1.49427600      1.07380100      1.80252000
C       0.96569800      1.80599200      0.07285700
C       1.30428300      3.03595800     -0.45841400
C       2.44283500      3.16574400     -1.28320200
C       3.26430600      2.07164200     -1.46064200
H       3.14666200     -3.44030200      1.39320500
H       0.84572000     -4.44766800      1.47919200
H      -1.23673900     -4.52450700      0.25527600
H      -2.88608300     -3.40529100     -1.27089900
H       4.89988600     -0.03117900     -1.35441200
H       4.53113100     -2.07054900      0.04166700
H      -3.65435600     -1.28725700     -2.35777700
H      -4.01449800      1.17834900     -2.06337800
H      -3.89959600      3.10808900     -0.49320800
H      -3.22222200      4.00595900      1.73105900
H      -1.81674100      2.63435000      3.24396900
H      -0.85129900      0.47660100      2.45137600
H       0.12602400      1.77354600      0.75380700
H       0.69659700      3.91274300     -0.23690400
H       2.67376900      4.12387000     -1.74307300
H       4.17800000      2.15585600     -2.04784900
          42
 Point   33
C       2.44365500     -1.61276000      0.43127900
C       2.27713800     -2.90863700      1.02467900
C       1.03022300     -3.44944600      1.09555700
C      -0.07504700     -2.70400500      0.56771500
C       0.01825300     -1.30107800      0.36884900
C       1.35229000     -0.72517400      0.27925000
C      -1.20320900     -3.45745400      0.08441500
C      -2.12843400     -2.84960800     -0.71039500
C      -2.14601200     -1.41650100     -0.78085000
C      -1.24946400     -0.67333500      0.01486600
C       1.71551300      0.62776700     -0.15888200
C       2.93594800      0.82547800     -0.86555400
C       3.94330200     -0.20773500     -0.86972300
C       3.74205200     -1.33073500     -0.13714500
C      -3.11893000     -0.72804300     -1.59488900
C      -3.33265800      0.60578900     -1.43353400
C      -2.74129900      1.27924900     -0.30099700
C      -1.77625500      0.59632000      0.48264200
C      -3.21143200      2.55422400      0.11738700
C      -2.85452600      3.05339400      1.35271900
C      -2.03575000      2.28585700      2.21828900
C      -1.50353000      1.08431700      1.79361500
C       0.98611000      1.80645100      0.14000900
C       1.31345800      3.04133100     -0.38695900
C       2.42403900      3.17438700     -1.24948800
C       3.23602400      2.07929900     -1.46540400
H       3.15947200     -3.45231100      1.35834400
H       0.85573500     -4.45023300      1.48520900
H      -1.24219600     -4.52597200      0.28901700
H      -2.89399100     -3.41326900     -1.23915200
H       4.86990800     -0.03372700     -1.41455500
H       4.52564100     -2.07931100     -0.02008100
H      -3.64831800     -1.30456200     -2.35192900
H      -3.99503800      1.16698100     -2.08888400
H      -3.87837400      3.11275700     -0.53756100
H      -3.21716600      4.02407500      1.68635400
H      -1.83539200      2.65403600      3.22329800
H      -0.87302200      0.48651300      2.45446300
H       0.18124500      1.76647300      0.86279500
H       0.72100400      3.91950700     -0.13115100
H       2.64402100      4.13669600     -1.70619000
H       4.13283600      2.16744400     -2.07775600
          42
 Point   34
C       2.44562100     -1.62087300      0.40983000
C       2.28562200     -2.91793000      1.00193300
C       1.03810000     -3.45422600      1.09452600
C      -0.07309700     -2.70707500      0.58120500
C       0.01947000     -1.30467000      0.37840300
C       1.35359200     -0.73055100      0.28175700
C      -1.20650000     -3.46099600      0.11129500
C      -2.13377200     -2.85649500     -0.68365400
C      -2.14573600     -1.42420400     -0.76811800
C      -1.24693500     -0.67619700      0.02074600
C       1.71571200      0.62693500     -0.14127600
C       2.92013000      0.82897000     -0.87317800
C       3.92285100     -0.20829200     -0.90935500
C       3.73335100     -1.33679600     -0.18173600
C      -3.11398500     -0.74084100     -1.59228400
C      -3.32073400      0.59594700     -1.44845400
C      -2.72952400      1.27968900     -0.32180600
C      -1.77068100      0.60081500      0.47300200
C      -3.19746100      2.56003900      0.08182300
C      -2.84751200      3.06875500      1.31543800
C      -2.03956000      2.30471600      2.19359100
C      -1.50893300      1.09755100      1.78231100
C       1.00433600      1.80423100      0.20217200
C       1.32118400      3.04492200     -0.31752900
C       2.40679600      3.18449100     -1.21062800
C       3.20985800      2.09008300     -1.46236400
H       3.17187900     -3.46519100      1.31871600
H       0.86691500     -4.45396600      1.48831600
H      -1.24789700     -4.52761500      0.32495800
H      -2.90429300     -3.42195100     -1.20326100
H       4.83792500     -0.03264400     -1.47262000
H       4.51691400     -2.08835800     -0.08655600
H      -3.64472200     -1.32415300     -2.34316400
H      -3.97803200      1.15262200     -2.11263500
H      -3.85763400      3.11521900     -0.58268600
H      -3.20831900      4.04388600      1.63767900
H      -1.84647700      2.67935500      3.19757000
H      -0.88876300      0.50124200      2.45426200
H       0.22971300      1.75424200      0.95715100
H       0.74163300      3.92239100     -0.03144800
H       2.61718600      4.15190300     -1.66108900
H       4.09156600      2.18424100     -2.09535600
          42
 Point   35
C       2.44685500     -1.62835700      0.38845700
C       2.29333600     -2.92663800      0.97906800
C       1.04585500     -3.45877000      1.09298000
C      -0.07112400     -2.71024600      0.59402700
C       0.02043100     -1.30840000      0.38721800
C       1.35447700     -0.73595000      0.28374300
C      -1.20952800     -3.46459900      0.13755300
C      -2.13928900     -2.86337400     -0.65694900
C      -2.14613900     -1.43209700     -0.75516600
C      -1.24464300     -0.67916300      0.02602900
C       1.71553200      0.62579500     -0.12406200
C       2.90333800      0.83321100     -0.88004200
C       3.90111400     -0.20707900     -0.94728300
C       3.72354600     -1.34112300     -0.22500500
C      -3.11057500     -0.75434700     -1.58863800
C      -3.31074900      0.58492700     -1.46217600
C      -2.71860700      1.27924700     -0.34239500
C      -1.76428500      0.60542800      0.46224000
C      -3.18465500      2.56452400      0.04669100
C      -2.83971500      3.08375100      1.27746400
C      -2.03943100      2.32501100      2.16653300
C      -1.51007300      1.11278900      1.76821000
C       1.02356800      1.79973400      0.26358800
C       1.33065900      3.04651400     -0.24713500
C       2.38989500      3.19416800     -1.16957500
C       3.18269200      2.10163700     -1.45781600
H       3.18306500     -3.47718300      1.27938700
H       0.87823600     -4.45749400      1.49082400
H      -1.25283900     -4.52933700      0.35974000
H      -2.91467700     -3.43052800     -1.16735900
H       4.80449600     -0.02892200     -1.52780600
H       4.50699700     -2.09478300     -0.15091100
H      -3.64311400     -1.34445500     -2.33285500
H      -3.96400800      1.13660000     -2.13435500
H      -3.84004200      3.11521700     -0.62612000
H      -3.19936600      4.06274800      1.58876300
H      -1.85141800      2.70700500      3.16861100
H      -0.89732200      0.51973300      2.44988600
H       0.27968900      1.73734000      1.04772600
H       0.76558300      3.92233900      0.06921500
H       2.59069800      4.16690300     -1.61275500
H       4.04819400      2.20275500     -2.11107900
          42
 Point   36
C       2.44800700     -1.63568100      0.36679000
C       2.30094600     -2.93514900      0.95595800
C       1.05352200     -3.46320600      1.09104200
C      -0.06928100     -2.71348100      0.60623700
C       0.02116000     -1.31222300      0.39506200
C       1.35513200     -0.74140600      0.28463400
C      -1.21271700     -3.46853000      0.16363100
C      -2.14553200     -2.87079500     -0.62991400
C      -2.14758200     -1.44052900     -0.74182500
C      -1.24284800     -0.68242800      0.03086200
C       1.71529800      0.62460600     -0.10792500
C       2.88713900      0.83790700     -0.88666200
C       3.88042000     -0.20516200     -0.98378800
C       3.71426100     -1.34489500     -0.26716600
C      -3.10911600     -0.76874900     -1.58384600
C      -3.30281900      0.57301000     -1.47491000
C      -2.70871400      1.27830900     -0.36279100
C      -1.75809100      0.60988300      0.45099300
C      -3.17255200      2.56867600      0.01170600
C      -2.83126500      3.09906600      1.23899500
C      -2.03767000      2.34606300      2.13845700
C      -1.51012400      1.12852100      1.75310900
C       1.04296200      1.79486400      0.32405600
C       1.34100400      3.04804000     -0.17646100
C       2.37429500      3.20444800     -1.12721600
C       3.15655400      2.11395200     -1.45228000
H       3.19414800     -3.48886800      1.24018500
H       0.88950100     -4.46086100      1.49308500
H      -1.25754900     -4.53145200      0.39417900
H      -2.92587800     -3.43981700     -1.13087300
H       4.77291900     -0.02414400     -1.58022800
H       4.49785600     -2.10043400     -0.21317100
H      -3.64406100     -1.36589300     -2.32078700
H      -3.95281400      1.11943600     -2.15454400
H      -3.82407000      3.11450800     -0.66881800
H      -3.18954100      4.08202600      1.53940600
H      -1.85368600      2.73581200      3.13831100
H      -0.90420200      0.53894500      2.44418100
H       0.32989300      1.71924300      1.13670400
H       0.79078800      3.92200300      0.17048700
H       2.56598100      4.18279800     -1.56227000
H       4.00599100      2.22232900     -2.12528500
          42
 Point   37
C       2.44817900     -1.64267700      0.34347300
C       2.30799400     -2.94384300      0.93009600
C       1.06145400     -3.46820300      1.08672700
C      -0.06728200     -2.71701300      0.61763300
C       0.02163300     -1.31631100      0.40225300
C       1.35535400     -0.74669000      0.28454000
C      -1.21610500     -3.47272200      0.19067800
C      -2.15298000     -2.87867600     -0.60078700
C      -2.15035500     -1.44971700     -0.72697500
C      -1.24176000     -0.68625100      0.03607000
C       1.71489700      0.62352400     -0.09177200
C       2.87203000      0.84436000     -0.88969400
C       3.85963700     -0.20093800     -1.01793500
C       3.70361500     -1.34775900     -0.31006600
C      -3.10973600     -0.78458200     -1.57696900
C      -3.29707200      0.55925200     -1.48594400
C      -2.69987400      1.27599200     -0.38268300
C      -1.75216400      0.61370100      0.43972000
C      -3.16042300      2.57180500     -0.02383600
C      -2.82050800      3.11491800      1.19845200
C      -2.03207600      2.36906200      2.10785400
C      -1.50749500      1.14571000      1.73647300
C       1.06003100      1.78826500      0.37956300
C       1.35016600      3.04818000     -0.10861200
C       2.36113700      3.21554100     -1.08147600
C       3.13376600      2.12842700     -1.44022300
H       3.20446200     -3.50077400      1.19709200
H       0.90163600     -4.46513800      1.49225300
H      -1.26212300     -4.53357200      0.43024200
H      -2.93902200     -3.44950200     -1.09073500
H       4.74109900     -0.01596300     -1.62924900
H       4.48610400     -2.10560100     -0.27787000
H      -3.64766400     -1.38902800     -2.30576500
H      -3.94448300      1.09980200     -2.17267500
H      -3.80873800      3.11193300     -0.71189900
H      -3.17634600      4.10229200      1.48688700
H      -1.84970400      2.76838900      3.10418400
H      -0.90643300      0.56125700      2.43626800
H       0.37302800      1.69833500      1.21357000
H       0.81237600      3.91872400      0.26532900
H       2.54541100      4.19988100     -1.50617400
H       3.96952900      2.24545600     -2.12864800
          42
 Point   38
C       2.44758400     -1.64891400      0.32003500
C       2.31428500     -2.95177800      0.90400500
C       1.06929000     -3.47276800      1.08204600
C      -0.06521700     -2.72042000      0.62866900
C       0.02187900     -1.32031400      0.40900300
C       1.35515200     -0.75171200      0.28392900
C      -1.21913900     -3.47676100      0.21749700
C      -2.16037200     -2.88640200     -0.57147100
C      -2.15360800     -1.45894700     -0.71180100
C      -1.24099800     -0.69010300      0.04107000
C       1.71417400      0.62238000     -0.07614600
C       2.85649200      0.85144600     -0.89208200
C       3.83788200     -0.19529900     -1.05092900
C       3.69187400     -1.34916800     -0.35226100
C      -3.11139800     -0.80082600     -1.56921300
C      -3.29270700      0.54464500     -1.49601000
C      -2.69186900      1.27286000     -0.40225900
C      -1.74609300      0.61731600      0.42794800
C      -3.14925200      2.57376400     -0.05905100
C      -2.80936300      3.13015400      1.15733200
C      -2.02408700      2.39257700      2.07562800
C      -1.50243000      1.16377400      1.71816200
C       1.07737800      1.78004100      0.43351800
C       1.36114000      3.04666800     -0.04061400
C       2.34963800      3.22610000     -1.03391800
C       3.11118300      2.14331300     -1.42677000
H       3.21362500     -3.51164500      1.15395300
H       0.91397200     -4.46899000      1.49102400
H      -1.26589600     -4.53551600      0.46575400
H      -2.95192500     -3.45895700     -1.05032900
H       4.70816600     -0.00579600     -1.67631000
H       4.47293600     -2.10871300     -0.34152800
H      -3.65250200     -1.41246700     -2.28953700
H      -3.93813400      1.07901300     -2.18933900
H      -3.79560100      3.10748900     -0.75383800
H      -3.16309700      4.12154300      1.43396400
H      -1.84184800      2.80205700      3.06774400
H      -0.90424400      0.58563200      2.42579200
H       0.41455900      1.67454500      1.28548600
H       0.83680600      3.91293600      0.36008300
H       2.52731500      4.21644500     -1.44712700
H       3.93270300      2.26956500     -2.13009100
          42
 Point   39
C       2.44696400     -1.65496400      0.29643100
C       2.32051900     -2.95945000      0.87791700
C       1.07708200     -3.47710100      1.07726800
C      -0.06321900     -2.72375000      0.63930600
C       0.02197600     -1.32427200      0.41505600
C       1.35481300     -0.75667600      0.28248400
C      -1.22222100     -3.48093800      0.24416600
C      -2.16822100     -2.89444200     -0.54195900
C      -2.15758800     -1.46848700     -0.69635800
C      -1.24060000     -0.69410200      0.04576800
C       1.71346000      0.62126800     -0.06145900
C       2.84153200      0.85878300     -0.89445300
C       3.81697200     -0.18931800     -1.08307700
C       3.68056800     -1.35026600     -0.39369000
C      -3.11442800     -0.81761400     -1.56065500
C      -3.28974300      0.52950200     -1.50543700
C      -2.68464800      1.26941800     -0.42167000
C      -1.74032700      0.62079400      0.41593600
C      -3.13874200      2.57547500     -0.09406300
C      -2.79821500      3.14540900      1.11612800
C      -2.01557000      2.41629700      2.04302100
C      -1.49701800      1.18196700      1.69939600
C       1.09476300      1.77162500      0.48643400
C       1.37307800      3.04512000      0.02737500
C       2.33967900      3.23700700     -0.98549900
C       3.08968100      2.15860800     -1.41279900
H       3.22273500     -3.52215600      1.11116100
H       0.92626600     -4.47252300      1.48990300
H      -1.26941800     -4.53765400      0.50098600
H      -2.96532400     -3.46887500     -1.00956300
H       4.67664100      0.00482700     -1.72168600
H       4.46034700     -2.11143000     -0.40371600
H      -3.65912800     -1.43661200     -2.27207400
H      -3.93363800      1.05755200     -2.20504900
H      -3.78364500      3.10262700     -0.79522000
H      -3.14980400      4.14082700      1.38107600
H      -1.83301300      2.83605100      3.03082500
H      -0.90125600      0.61029700      2.41462600
H       0.45547500      1.65009600      1.35551600
H       0.86253200      3.90695800      0.45504200
H       2.51140600      4.23354800     -1.38648400
H       3.89704800      2.29419800     -2.13070300
          42
 Point   40
C       2.44547200     -1.66042000      0.27155000
C       2.32610600     -2.96701100      0.84938900
C       1.08500900     -3.48179300      1.07004100
C      -0.06103900     -2.72718700      0.64896400
C       0.02186800     -1.32828200      0.42038300
C       1.35409200     -0.76125000      0.28004900
C      -1.22532800     -3.48514100      0.27156500
C      -2.17707100     -2.90263300     -0.51049300
C      -2.16281900     -1.47847400     -0.67943700
C      -1.24090200     -0.69848600      0.05085300
C       1.71274100      0.62036200     -0.04701300
C       2.82807300      0.86743700     -0.89392100
C       3.79674100     -0.18130400     -1.11266300
C       3.66844500     -1.35022700     -0.43504900
C      -3.11946800     -0.83535500     -1.54995700
C      -3.28877400      0.51301100     -1.51316100
C      -2.67838000      1.26488400     -0.44054900
C      -1.73513000      0.62356800      0.40412700
C      -3.12801000      2.57639900     -0.12953700
C      -2.78522100      3.16075700      1.07327500
C      -2.00476800      2.44073000      2.00867000
C      -1.49049800      1.20044000      1.67982900
C       1.11009400      1.76223700      0.53504100
C       1.38410200      3.04250300      0.09232700
C       2.33229900      3.24812300     -0.93526100
C       3.07186600      2.17513700     -1.39387700
H       3.23090100     -3.53253200      1.06508500
H       0.93920300     -4.47682200      1.48544300
H      -1.27251300     -4.53960000      0.53741700
H      -2.98028600     -3.47881400     -0.96538600
H       4.64610800      0.01841500     -1.76313700
H       4.44593300     -2.11310800     -0.46662300
H      -3.66839600     -1.46182100     -2.25155100
H      -3.93176200      1.03425700     -2.21867400
H      -3.77161000      3.09658800     -0.83704700
H      -3.13348600      4.16060500      1.32555300
H      -1.82039100      2.87180900      2.99120800
H      -0.89634900      0.63602200      2.40238800
H       0.49002200      1.62450100      1.41636500
H       0.88511600      3.89883200      0.54398900
H       2.49965300      4.25079900     -1.32267800
H       3.86753900      2.32085000     -2.12269700
          42
 Point   41
C       2.44315800     -1.66501900      0.24635200
C       2.33093100     -2.97370700      0.82043800
C       1.09287900     -3.48594400      1.06245800
C      -0.05873700     -2.73035400      0.65846100
C       0.02156200     -1.33205500      0.42551500
C       1.35293600     -0.76533500      0.27713900
C      -1.22796400     -3.48904800      0.29901900
C      -2.18568100     -2.91057400     -0.47860200
C      -2.16838900     -1.48841400     -0.66202500
C      -1.24157800     -0.70287100      0.05607100
C       1.71174600      0.61959900     -0.03312500
C       2.81452200      0.87661000     -0.89288400
C       3.77569200     -0.17212300     -1.14157300
C       3.65516700     -1.34892200     -0.47623600
C      -3.12518200     -0.85329300     -1.53838800
C      -3.28862100      0.49590300     -1.52011600
C      -2.67270000      1.25964500     -0.45915800
C      -1.73024400      0.62594800      0.39231800
C      -3.11769700      2.57636300     -0.16500500
C      -2.77189300      3.17535600      1.02972600
C      -1.99302500      2.46489800      1.97327100
C      -1.48335800      1.21879600      1.65959500
C       1.12533100      1.75187400      0.58187100
C       1.39697000      3.03858000      0.15699800
C       2.32738300      3.25857600     -0.88359500
C       3.05504700      2.19176600     -1.37374500
H       3.23794100     -3.54178600      1.01854900
H       0.95241200     -4.48058100      1.48059200
H      -1.27468800     -4.54120100      0.57369400
H      -2.99475400     -3.48844200     -0.92064200
H       4.61460700      0.03354500     -1.80336500
H       4.42985900     -2.11309600     -0.52935500
H      -3.67845300     -1.48704500     -2.22985500
H      -3.93095200      1.01013300     -2.23128700
H      -3.76046800      3.08925900     -0.87848400
H      -3.11671400      4.17942200      1.26917700
H      -1.80620900      2.90753900      2.95005300
H      -0.89056400      0.66194600      2.38932800
H       0.52167700      1.59768200      1.47251800
H       0.91028300      3.88866500      0.63235200
H       2.49167700      4.26719100     -1.25637000
H       3.83886000      2.34785800     -2.11289900
          42
 Point   42
C       2.44081400     -1.66945100      0.22107700
C       2.33572800     -2.98012500      0.79169600
C       1.10074100     -3.48980600      1.05507700
C      -0.05646900     -2.73339000      0.66779800
C       0.02115600     -1.33572900      0.43024900
C       1.35167800     -0.76931200      0.27366900
C      -1.23056500     -3.49299200      0.32634000
C      -2.19448200     -2.91868100     -0.44669500
C      -2.17436900     -1.49851000     -0.64449100
C      -1.24249500     -0.70731500      0.06112800
C       1.71073100      0.61891700     -0.01999200
C       2.80137000      0.88589800     -0.89200800
C       3.75513700     -0.16285300     -1.17015300
C       3.64212400     -1.34749900     -0.51703700
C      -3.13165000     -0.87149800     -1.52640700
C      -3.28918900      0.47854300     -1.52677900
C      -2.66750800      1.25424000     -0.47764200
C      -1.72566500      0.62821400      0.38046700
C      -3.10788900      2.57616600     -0.20025400
C      -2.75886800      3.18983900      0.98633600
C      -1.98140600      2.48896200      1.93790300
C      -1.47636300      1.23703700      1.63930900
C       1.14051800      1.74146000      0.62777500
C       1.41074800      3.03465000      0.22155500
C       2.32392700      3.26919500     -0.83138100
C       3.03912200      2.20856300     -1.35344000
H       3.24497700     -3.55066700      0.97252300
H       0.96562000     -4.48393000      1.47622200
H      -1.27662400     -4.54289400      0.60969500
H      -3.00937700     -3.49836100     -0.87587700
H       4.58392700      0.04873600     -1.84282800
H       4.41406000     -2.11298000     -0.59129200
H      -3.68948500     -1.51261300     -2.20752500
H      -3.93102100      0.98571900     -2.24349400
H      -3.75008100      3.08173000     -0.91950500
H      -3.10029300      4.19811100      1.21309600
H      -1.79208500      2.94313100      2.90896200
H      -0.88473500      0.68777900      2.37610100
H       0.55239400      1.57063500      1.52699300
H       0.93665600      3.87838200      0.72077200
H       2.48587100      4.28384300     -1.18891300
H       3.81109400      2.37504200     -2.10279700
          42
 Point   43
C       2.43772300     -1.67312200      0.19492500
C       2.33982200     -2.98627100      0.76078400
C       1.10861800     -3.49393300      1.04516900
C      -0.05399300     -2.73643000      0.67602200
C       0.02060600     -1.33932300      0.43428100
C       1.35010400     -0.77277000      0.26940800
C      -1.23300800     -3.49679100      0.35410600
C      -2.20403000     -2.92666700     -0.41302500
C      -2.18143500     -1.50877600     -0.62553900
C      -1.24402200     -0.71200000      0.06657800
C       1.70982500      0.61849400     -0.00706000
C       2.78976300      0.89610500     -0.88880900
C       3.73562100     -0.15184000     -1.19618900
C       3.62866300     -1.34479700     -0.55718100
C      -3.13993900     -0.89022600     -1.51228400
C      -3.29145700      0.46024600     -1.53180000
C      -2.66301300      1.24801500     -0.49567900
C      -1.72173300      0.62982700      0.36893600
C      -3.09754000      2.57536600     -0.23603700
C      -2.74422800      3.20409400      0.94149900
C      -1.96866000      2.51287900      1.90133900
C      -1.46941700      1.25479700      1.61877200
C       1.15411400      1.73063100      0.67030300
C       1.42383200      3.02989300      0.28323700
C       2.32267500      3.27953500     -0.77853900
C       3.02655000      2.22584000     -1.32962700
H       3.25093600     -3.55923300      0.92365500
H       0.97923300     -4.48801600      1.46823400
H      -1.27788100     -4.54426400      0.64642500
H      -3.02514800     -3.50795900     -0.82799100
H       4.55481500      0.06642900     -1.87835100
H       4.39710600     -2.11141900     -0.65274300
H      -3.70301300     -1.53867700     -2.18208500
H      -3.93336000      0.95996900     -2.25366300
H      -3.73886600      3.07350400     -0.96120400
H      -3.08099600      4.21689100      1.15462000
H      -1.77615600      2.97904400      2.86602000
H      -0.87962000      0.71305300      2.36288400
H       0.57812700      1.54368500      1.57499900
H       0.96052000      3.86657100      0.80395400
H       2.48345900      4.29985300     -1.12024400
H       3.78886300      2.40302100     -2.08632700
          42
 Point   44
C       2.43378600     -1.67588800      0.16842800
C       2.34310900     -2.99150800      0.72937400
C       1.11640500     -3.49746900      1.03485900
C      -0.05137000     -2.73912000      0.68411800
C       0.01988300     -1.34258700      0.43823900
C       1.34810700     -0.77561800      0.26478000
C      -1.23487100     -3.50019900      0.38195300
C      -2.21317800     -2.93429600     -0.37887200
C      -2.18871700     -1.51888700     -0.60602400
C      -1.24589500     -0.71662500      0.07229700
C       1.70870200      0.61831700      0.00540200
C       2.77824900      0.90669600     -0.88518500
C       3.71541000     -0.13983500     -1.22174300
C       3.61405000     -1.34092900     -0.59734000
C      -3.14868900     -0.90896700     -1.49727500
C      -3.29423000      0.44148600     -1.53615700
C      -2.65894300      1.24117000     -0.51351500
C      -1.71827000      0.63104100      0.35759900
C      -3.08735200      2.57365900     -0.27200800
C      -2.72937200      3.21742400      0.89592300
C      -1.95580900      2.53609600      1.86405700
C      -1.46274800      1.27202700      1.59806800
C       1.16752900      1.71926500      0.71122900
C       1.43868000      3.02401400      0.34446100
C       2.32408400      3.28899900     -0.72466800
C       3.01530300      2.24292100     -1.30483500
H       3.25571000     -3.56664500      0.87415400
H       0.99306200     -4.49151900      1.45975800
H      -1.27809800     -4.54520000      0.68301300
H      -3.04020300     -3.51713100     -0.77945300
H       4.52488600      0.08537500     -1.91296600
H       4.37840500     -2.10832800     -0.71433500
H      -3.71709000     -1.56451300     -2.15542800
H      -3.93630700      0.93356600     -2.26303300
H      -3.72790200      3.06420000     -1.00293200
H      -3.06119600      4.23454800      1.09508700
H      -1.76001000      3.01428300      2.82201500
H      -0.87547000      0.73771600      2.34973600
H       0.60115000      1.51656600      1.61927500
H       0.98676400      3.85302200      0.88637600
H       2.48515000      4.31459400     -1.04967100
H       3.76801100      2.43084400     -2.06833800
          42
 Point   45
C       2.42980200     -1.67851200      0.14194800
C       2.34638100     -2.99645400      0.69838000
C       1.12420300     -3.50067000      1.02501600
C      -0.04876500     -2.74164400      0.69224000
C       0.01908900     -1.34572100      0.44201100
C       1.34601900     -0.77833700      0.25980700
C      -1.23664100     -3.50358900      0.40963100
C      -2.22229300     -2.94201100     -0.34493300
C      -2.19615600     -1.52905900     -0.58657300
C      -1.24791600     -0.72124800      0.07790800
C       1.70752900      0.61824100      0.01725900
C       2.76693400      0.91730200     -0.88186500
C       3.69536800     -0.12790800     -1.24733100
C       3.59947700     -1.33707100     -0.63736600
C      -3.15774900     -0.92780800     -1.48219000
C      -3.29731700      0.42263400     -1.54045400
C      -2.65520100      1.23423900     -0.53124000
C      -1.71508100      0.63217500      0.34631200
C      -3.07762600      2.57182400     -0.30770900
C      -2.71496700      3.23058200      0.85065800
C      -1.94335300      2.55908800      1.82701900
C      -1.45642200      1.28905400      1.57751600
C       1.18093500      1.70794000      0.75144900
C       1.45443200      3.01812800      0.40562000
C       2.32680200      3.29848200     -0.67045500
C       3.00470500      2.26001300     -1.28012900
H       3.26050300     -3.57367500      0.82537000
H       1.00691200     -4.49453100      1.45210500
H      -1.27809600     -4.54617500      0.71927500
H      -3.05511100     -3.52650600     -0.73128800
H       4.49526300      0.10412600     -1.94746300
H       4.35972000     -2.10530600     -0.77556800
H      -3.73154100     -1.59047100     -2.12865100
H      -3.93957800      0.90708700     -2.27232300
H      -3.71756500      3.05476900     -1.04424500
H      -3.04195100      4.25199800      1.03602900
H      -1.74434800      3.04920100      2.77834400
H      -0.87170500      0.76208500      2.33672400
H       0.62337800      1.48948500      1.66229700
H       1.01427700      3.83939200      0.96893200
H       2.48883500      4.32937100     -0.97827400
H       3.74773200      2.45862700     -2.05045800
          42
 Point   46
C       2.42521300     -1.68034000      0.11504000
C       2.34888200     -3.00107500      0.66558300
C       1.13183400     -3.50408400      1.01270200
C      -0.04597200     -2.74411200      0.69914000
C       0.01820800     -1.34869300      0.44511700
C       1.34371800     -0.78052900      0.25436200
C      -1.23809600     -3.50671200      0.43734900
C      -2.23182800     -2.94935300     -0.30962900
C      -2.20441500     -1.53912300     -0.56591900
C      -1.25037500     -0.72592800      0.08377300
C       1.70659900      0.61837600      0.02916300
C       2.75704000      0.92846300     -0.87661800
C       3.67648800     -0.11455400     -1.27042200
C       3.58478900     -1.33191000     -0.67624800
C      -3.16840600     -0.94681800     -1.46509100
C      -3.30203900      0.40313500     -1.54311500
C      -2.65214000      1.22664800     -0.54854900
C      -1.71238800      0.63285800      0.33519200
C      -3.06762000      2.56930800     -0.34379100
C      -2.69941900      3.24318400      0.80420700
C      -1.93011400      2.58164300      1.78893300
C      -1.45014500      1.30561300      1.55663300
C       1.19333000      1.69643700      0.78935200
C       1.46959600      3.01148300      0.46429500
C       2.33099600      3.30727400     -0.61641700
C       2.99676800      2.27701000     -1.25303800
H       3.26407100     -3.58034000      0.77427600
H       1.02081300     -4.49825600      1.44075900
H      -1.27724800     -4.54675700      0.75564900
H      -3.07066600     -3.53524000     -0.68058800
H       4.46740000      0.12491000     -1.97816300
H       4.34042400     -2.10062500     -0.83543100
H      -3.74818200     -1.61646400     -2.09892300
H      -3.94516100      0.87959400     -2.27945700
H      -3.70675700      3.04455000     -1.08599700
H      -3.02060200      4.26896000      0.97502800
H      -1.72741000      3.08390600      2.73306900
H      -0.86871600      0.78588200      2.32360600
H       0.64251400      1.46300000      1.70128800
H       1.03981300      3.82456500      1.04713300
H       2.49463200      4.34292300     -0.90709100
H       3.73186100      2.48635500     -2.02809200
          42
 Point   47
C       2.41984200     -1.68128100      0.08791400
C       2.35055000     -3.00480300      0.63236500
C       1.13929700     -3.50690000      0.99994300
C      -0.04303200     -2.74619400      0.70584200
C       0.01719000     -1.35128500      0.44815700
C       1.34105500     -0.78211000      0.24868100
C      -1.23890100     -3.50939300      0.46498000
C      -2.24081600     -2.95622500     -0.27397000
C      -2.21275000     -1.54889600     -0.54475400
C      -1.25308900     -0.73043900      0.08986200
C       1.70554600      0.61873500      0.04073800
C       2.74733000      0.93985700     -0.87097900
C       3.65707800     -0.10034900     -1.29299600
C       3.56908600     -1.32564300     -0.71502500
C      -3.17941000     -0.96568600     -1.44711400
C      -3.30727700      0.38328200     -1.54507700
C      -2.64957000      1.21849000     -0.56564400
C      -1.71012100      0.63326300      0.32419900
C      -3.05801600      2.56581400     -0.38000400
C      -2.68398000      3.25472600      0.75707200
C      -1.91695600      2.60346200      1.75011100
C      -1.44411800      1.32177100      1.53548900
C       1.20565200      1.68452600      0.82603700
C       1.48637300      3.00368800      0.52256300
C       2.33760400      3.31493500     -0.56165300
C       2.99010900      2.29357200     -1.22518900
H       3.26639200     -3.58588800      0.72265100
H       1.03476600     -4.50140500      1.42881500
H      -1.27530700     -4.54688400      0.79162900
H      -3.08531000     -3.54340800     -0.62937900
H       4.43894400      0.14674300     -2.00794700
H       4.31955600     -2.09444700     -0.89526100
H      -3.76519900     -1.64204500     -2.06797300
H      -3.95141100      0.85155700     -2.28570800
H      -3.69651300      3.03313200     -1.12768500
H      -2.99922900      4.28454800      0.91305600
H      -1.71045800      3.11786600      2.68669800
H      -0.86646700      0.80937100      2.31036100
H       0.65974700      1.43662600      1.73763000
H       1.06757200      3.80803000      1.12468700
H       2.50411800      4.35481500     -0.83454500
H       3.71735000      2.51361300     -2.00454300
          42
 Point   48
C       2.41441100     -1.68211000      0.06087000
C       2.35221500     -3.00825800      0.59969200
C       1.14678400     -3.50937500      0.98779900
C      -0.04011000     -2.74810100      0.71265900
C       0.01610900     -1.35374500      0.45112800
C       1.33830900     -0.78356300      0.24279400
C      -1.23959000     -3.51204000      0.49238900
C      -2.24965100     -2.96315200     -0.23870300
C      -2.22109900     -1.55868800     -0.52378600
C      -1.25589600     -0.73491700      0.09585500
C       1.70442800      0.61919900      0.05183400
C       2.73769400      0.95121900     -0.86568900
C       3.63765100     -0.08629300     -1.31575500
C       3.55330900     -1.31944900     -0.75377800
C      -3.19048300     -0.98457700     -1.42927500
C      -3.31263600      0.36341400     -1.54709800
C      -2.64726300      1.21028400     -0.58262400
C      -1.70808800      0.63362000      0.31328600
C      -3.04888800      2.56220000     -0.41588500
C      -2.66904100      3.26609200      0.71032800
C      -1.90421700      2.62506300      1.71159900
C      -1.43843100      1.33775000      1.51454900
C       1.21801100      1.67269600      0.86220000
C       1.50400300      2.99586100      0.58080500
C       2.34534100      3.32251400     -0.50668500
C       2.98390200      2.31006700     -1.19755900
H       3.26875800     -3.59107100      0.67188700
H       1.04875600     -4.50403400      1.41789100
H      -1.27318000     -4.54703600      0.82722500
H      -3.09964500     -3.55175100     -0.57884100
H       4.41051300      0.16827700     -2.03790200
H       4.29854800     -2.08842200     -0.95494300
H      -3.78224900     -1.66764600     -2.03723400
H      -3.95773400      0.82354400     -2.29203600
H      -3.68692700      3.02159300     -1.16888700
H      -2.97849100      4.29991500      0.85165400
H      -1.69401000      3.15151700      2.64073100
H      -0.86463000      0.83258400      2.29732000
H       0.67641500      1.41040900      1.77307600
H       1.09658300      3.79140400      1.20241700
H       2.51535100      4.36659000     -0.76141700
H       3.70314500      2.54073400     -1.98133400
          42
 Point   49
C       2.40852000     -1.68217900      0.03376200
C       2.35306900     -3.01137400      0.56558700
C       1.15393500     -3.51201400      0.97335600
C      -0.03703800     -2.74991500      0.71822700
C       0.01499200     -1.35599300      0.45347500
C       1.33545700     -0.78454400      0.23670900
C      -1.23986400     -3.51434900      0.51949400
C      -2.25859300     -2.96952400     -0.20248400
C      -2.22998400     -1.56814800     -0.50186900
C      -1.25896800     -0.73928500      0.10193900
C       1.70366900      0.61976800      0.06319600
C       2.72932400      0.96285000     -0.85875100
C       3.61940800     -0.07109700     -1.33611100
C       3.53764100     -1.31201400     -0.79107900
C      -3.20290300     -1.00336700     -1.40959600
C      -3.31963900      0.34312700     -1.54746100
C      -2.64573600      1.20152300     -0.59915500
C      -1.70636000      0.63372500      0.30232400
C      -3.03996500      2.55778900     -0.45189900
C      -2.65349800      3.27667500      0.66265000
C      -1.89068200      2.64620900      1.67197500
C      -1.43235900      1.35352700      1.49293400
C       1.22982800      1.66070200      0.89686600
C       1.52107100      2.98724600      0.63697200
C       2.35386100      3.32914000     -0.45232800
C       2.97968600      2.32610900     -1.16829200
H       3.26980100     -3.59588300      0.61932800
H       1.06245700     -4.50732000      1.40340600
H      -1.27014500     -4.54677500      0.86241700
H      -3.11415700     -3.55922400     -0.52638600
H       4.38385700      0.19142900     -2.06429300
H       4.27734900     -2.08068400     -1.01272200
H      -3.80109400     -1.69293800     -2.00379800
H      -3.96650400      0.79478400     -2.29604200
H      -3.67764500      3.00903700     -1.21009700
H      -2.95661300      4.31432000      0.78879800
H      -1.67616700      3.18486300      2.59306500
H      -0.86252600      0.85579100      2.28352300
H       0.69148200      1.38476000      1.80615700
H       1.12396900      3.77369800      1.27656500
H       2.52751800      4.37682500     -0.68932700
H       3.69228200      2.56732300     -1.95494500
          42
 Point   50
C       2.40195600     -1.68140100      0.00660600
C       2.35311200     -3.01363100      0.53118600
C       1.16084800     -3.51408700      0.95842400
C      -0.03383200     -2.75136100      0.72348800
C       0.01376500     -1.35786500      0.45573300
C       1.33230800     -0.78497200      0.23050300
C      -1.23945500     -3.51623000      0.54628000
C      -2.26688100     -2.97536700     -0.16609500
C      -2.23883500     -1.57721400     -0.47951300
C      -1.26221700     -0.74340600      0.10817800
C       1.70284900      0.62049300      0.07437600
C       2.72115200      0.97461000     -0.85141100
C       3.60079900     -0.05513400     -1.35581800
C       3.52116000     -1.30349300     -0.82804800
C      -3.21562000     -1.02189200     -1.38901100
C      -3.32726600      0.32259400     -1.54699500
C      -2.64480900      1.19224600     -0.61539800
C      -1.70497100      0.63365600      0.29138600
C      -3.03172000      2.55236500     -0.48792300
C      -2.63823600      3.28618300      0.61427400
C      -1.87704300      2.66674100      1.63139000
C      -1.42622000      1.36912300      1.47077900
C       1.24166100      1.64826800      0.93066800
C       1.53948200      2.97738300      0.69282000
C       2.36432700      3.33445300     -0.39745700
C       2.97650300      2.34158500     -1.13841800
H       3.26960400     -3.59961900      0.56643800
H       1.07604700     -4.51007800      1.38820700
H      -1.26601800     -4.54611900      0.89688000
H      -3.12761600     -3.56605000     -0.47365300
H       4.35684100      0.21551900     -2.08962500
H       4.25488300     -2.07142300     -1.07013400
H      -3.82021600     -1.71767200     -1.96909800
H      -3.97614800      0.76560700     -2.29892700
H      -3.66940500      2.99517000     -1.25099200
H      -2.93503300      4.32725300      0.72499000
H      -1.65792800      3.21762300      2.54395900
H      -0.86042300      0.87913800      2.26913000
H       0.70534900      1.35914000      1.83741500
H       1.15328000      3.75418000      1.35019800
H       2.54264400      4.38515200     -0.61629600
H       3.68248900      2.59332800     -1.92763100
          42
 Point   51
C       2.39534700     -1.68053900     -0.02040400
C       2.35317600     -3.01565400      0.49739500
C       1.16779800     -3.51585600      0.94413300
C      -0.03064500     -2.75265800      0.72886200
C       0.01248100     -1.35962300      0.45796300
C       1.32908800     -0.78529000      0.22417900
C      -1.23893500     -3.51809800      0.57276400
C      -2.27499100     -2.98125800     -0.13020500
C      -2.24764400     -1.58627900     -0.45742000
C      -1.26552700     -0.74748700      0.11432500
C       1.70195400      0.62131200      0.08516100
C       2.71299600      0.98631700     -0.84440700
C       3.58214200     -0.03933500     -1.37568700
C       3.50460400     -1.29506500     -0.86495500
C      -3.22830300     -1.04039000     -1.36866500
C      -3.33494100      0.30210100     -1.54662100
C      -2.64410600      1.18295700     -0.63150300
C      -1.70378000      0.63355700      0.28055200
C      -3.02392300      2.54685500     -0.52356800
C      -2.62340900      3.29555800      0.56631700
C      -1.86374500      2.68709700      1.59113200
C      -1.42036700      1.38457200      1.44884500
C       1.25352300      1.63592700      0.96404700
C       1.55860200      2.96746600      0.74860300
C       2.37567800      3.33962400     -0.34253900
C       2.97361200      2.35696600     -1.10884100
H       3.26949100     -3.60303400      0.51449500
H       1.08968800     -4.51235600      1.37405400
H      -1.26174000     -4.54552000      0.93085000
H      -3.14074300     -3.57303500     -0.42174600
H       4.32981500      0.23929600     -2.11512400
H       4.23229200     -2.06232400     -1.12736400
H      -3.83922600     -1.74236600     -1.93477200
H      -3.98577700      0.73652800     -2.30192500
H      -3.66181400      2.98122000     -1.29133800
H      -2.91400600      4.34001500      0.66177300
H      -1.64007000      3.25013100      2.49525700
H      -0.85866700      0.90226100      2.25495600
H       0.71880600      1.33371500      1.86799500
H       1.18368100      3.73455400      1.42393600
H       2.55914900      4.39327200     -0.54295700
H       3.67281300      2.61916700     -1.90076900
          42
 Point   52
C       2.38839900     -1.67897200     -0.04724000
C       2.35242200     -3.01733300      0.46247100
C       1.17429100     -3.51774800      0.92776200
C      -0.02735000     -2.75385100      0.73304600
C       0.01119900     -1.36116100      0.45964800
C       1.32584300     -0.78521000      0.21784900
C      -1.23796100     -3.51959700      0.59874900
C      -2.28296600     -2.98648700     -0.09367500
C      -2.25674400     -1.59486400     -0.43457700
C      -1.26896600     -0.75135500      0.12047300
C       1.70146000      0.62213100      0.09633900
C       2.70593000      0.99810300     -0.83596900
C       3.56461200     -0.02261700     -1.39330200
C       3.48829300     -1.28547900     -0.90028400
C      -3.24204800     -1.05856700     -1.34665300
C      -3.34412600      0.28141000     -1.54461200
C      -2.64418200      1.17321900     -0.64713000
C      -1.70273000      0.63332800      0.26953400
C      -3.01660700      2.54052500     -0.55916100
C      -2.60833300      3.30403100      0.51761700
C      -1.84959200      2.70698800      1.54969700
C      -1.41378400      1.39996800      1.42598600
C       1.26508300      1.62335600      0.99642700
C       1.57705300      2.95672800      0.80258800
C       2.38723500      3.34373500     -0.28845600
C       2.97214700      2.37171500     -1.07810200
H       3.26802200     -3.60606600      0.46115000
H       1.10278700     -4.51522300      1.35658000
H      -1.25658400     -4.54451400      0.96411600
H      -3.15368300     -3.57901900     -0.36842000
H       4.30446200      0.26437400     -2.13735200
H       4.20978500     -2.05154400     -1.18247800
H      -3.85961000     -1.76646500     -1.89802000
H      -3.99774700      0.70699200     -2.30254500
H      -3.65498900      2.96618500     -1.33137500
H      -2.89251700      4.35154700      0.59747300
H      -1.62067600      3.28226400      2.44475200
H      -0.85582000      0.92570800      2.23953800
H       0.73153300      1.30866700      1.89717100
H       1.21251800      3.71388000      1.49460100
H       2.57568600      4.39976600     -0.47107300
H       3.66562500      2.64426600     -1.87156500
          42
 Point   53
C       2.38091100     -1.67660000     -0.07396300
C       2.35091600     -3.01819400      0.42736500
C       1.18049000     -3.51913600      0.91083200
C      -0.02394600     -2.75473600      0.73678000
C       0.00982700     -1.36236200      0.46119500
C       1.32236300     -0.78465200      0.21148000
C      -1.23630900     -3.52074000      0.62416000
C      -2.29023900     -2.99117700     -0.05714500
C      -2.26575200     -1.60298500     -0.41133100
C      -1.27252900     -0.75494400      0.12672700
C       1.70093000      0.62302700      0.10744300
C       2.69907300      1.00995500     -0.82707400
C       3.54693400     -0.00518000     -1.41005900
C       3.47143300     -1.27482100     -0.93500300
C      -3.25610600     -1.07635300     -1.32362800
C      -3.35406900      0.26061300     -1.54156000
C      -2.64493500      1.16303200     -0.66234900
C      -1.70194000      0.63297800      0.25848400
C      -3.01009700      2.53321800     -0.59464400
C      -2.59346500      3.31147900      0.46812700
C      -1.83497500      2.72637200      1.50701500
C      -1.40681100      1.41530900      1.40232400
C       1.27661400      1.61027800      1.02814800
C       1.59639800      2.94468600      0.85623000
C       2.40015400      3.34646400     -0.23406100
C       2.97144100      2.38586000     -1.04683000
H       3.26538700     -3.60805500      0.40768100
H       1.11562700     -4.51764700      1.33824400
H      -1.25037600     -4.54324400      0.99628200
H      -3.16550600     -3.58433400     -0.31502000
H       4.27906800      0.29032300     -2.15826100
H       4.18642000     -2.03920900     -1.23681700
H      -3.88028000     -1.78985200     -1.85985600
H      -4.01082700      0.67722800     -2.30170000
H      -3.64950900      2.94984600     -1.37083500
H      -2.87128500      4.36163000      0.53210900
H      -1.60026200      3.31395200      2.39234300
H      -0.85236000      0.94954600      2.22312900
H       0.74346000      1.28347500      1.92502400
H       1.24266900      3.69132600      1.56468900
H       2.59429800      4.40427800     -0.39863700
H       3.65922700      2.66878100     -1.84153600
          42
 Point   54
C       2.37341800     -1.67417600     -0.10048300
C       2.34947200     -3.01887700      0.39287600
C       1.18673800     -3.52029300      0.89447500
C      -0.02055900     -2.75552600      0.74057000
C       0.00840300     -1.36348900      0.46271500
C       1.31882800     -0.78402000      0.20505100
C      -1.23456300     -3.52191700      0.64918100
C      -2.29735400     -2.99593100     -0.02117500
C      -2.27471000     -1.61110200     -0.38836300
C      -1.27614200     -0.75850400      0.13290600
C       1.70031800      0.62399600      0.11823100
C       2.69220400      1.02174800     -0.81845800
C       3.52926400      0.01210500     -1.42687000
C       3.45456700     -1.26425400     -0.96956800
C      -3.27011400     -1.09408400     -1.30085000
C      -3.36405300      0.23989700     -1.53856400
C      -2.64588500      1.15286200     -0.67738300
C      -1.70132100      0.63260300      0.24757600
C      -3.00396200      2.52587200     -0.62972500
C      -2.57885000      3.31887600      0.41900400
C      -1.82052400      2.74565900      1.46460800
C      -1.40005100      1.43054400      1.37889300
C       1.28812800      1.59729000      1.05951400
C       1.61622200      2.93258800      0.90973400
C       2.41364500      3.34904600     -0.17976900
C       2.97086300      2.39991300     -1.01589100
H       3.26289300     -3.60978400      0.35518000
H       1.12852800     -4.51968700      1.32084000
H      -1.24405300     -4.54209600      1.02782900
H      -3.17704100     -3.58980800     -0.26251200
H       4.25375800      0.31599500     -2.17919700
H       4.16303600     -2.02702300     -1.29085600
H      -3.90081800     -1.81316200     -1.82209400
H      -4.02389300      0.64762300     -2.30092100
H      -3.64463400      2.93347500     -1.40969900
H      -2.85034100      4.37164800      0.46722300
H      -1.57996200      3.34550500      2.34023400
H      -0.84919300      0.97321500      2.20696500
H       0.75506500      1.25847600      1.95235700
H       1.27360100      3.66867500      1.63474900
H       2.61381700      4.40856800     -0.32616800
H       3.65277500      2.69315000     -1.81200400
          42
 Point   55
C       2.36566300     -1.67110300     -0.12670900
C       2.34721300     -3.01920000      0.35748800
C       1.19244700     -3.52151800      0.87630100
C      -0.01711000     -2.75620500      0.74330900
C       0.00701100     -1.36440100      0.46379700
C       1.31532000     -0.78305500      0.19872700
C      -1.23238000     -3.52270100      0.67366400
C      -2.30417100     -2.99995700      0.01525300
C      -2.28375900     -1.61864000     -0.36478900
C      -1.27977200     -0.76179200      0.13905100
C       1.70008500      0.62488300      0.12943400
C       2.68624700      1.03349900     -0.80861100
C       3.51260000      0.03012800     -1.44164200
C       3.43799500     -1.25263200     -1.00257900
C      -3.28485900     -1.11129800     -1.27659800
C      -3.37525000      0.21920700     -1.53403900
C      -2.64748300      1.14236300     -0.69195000
C      -1.70070100      0.63216400      0.23642000
C      -2.99835600      2.51775800     -0.66463900
C      -2.56422300      3.32527100      0.36933900
C      -1.80527100      2.76436300      1.42107400
C      -1.39240200      1.44570500      1.35443300
C       1.29939000      1.58401200      1.09011200
C       1.63521900      2.91967900      0.96159100
C       2.42694800      3.35056300     -0.12641200
C       2.97129800      2.41326500     -0.98409800
H       3.25904700     -3.61110100      0.30157100
H       1.14071600     -4.52221600      1.30045400
H      -1.23696000     -4.54053900      1.05859700
H      -3.18813400     -3.59421200     -0.20892900
H       4.22993800      0.34270300     -2.19722100
H       4.13988000     -2.01324400     -1.34279500
H      -3.92228500     -1.83561900     -1.78221600
H      -4.03892200      0.61787200     -2.29787400
H      -3.64059800      2.91611300     -1.44808700
H      -2.82942700      4.38024800      0.40162200
H      -1.55822700      3.37644400      2.28639100
H      -0.84451500      0.99722200      2.18930900
H       0.76632000      1.23366700      1.97874000
H       1.30285700      3.64501900      1.70201900
H       2.63281300      4.41128700     -0.25530500
H       3.64821200      2.71670500     -1.78065500
          42
 Point   56
C       2.35751900     -1.66727600     -0.15272300
C       2.34427100     -3.01876700      0.32192400
C       1.19780500     -3.52232900      0.85740800
C      -0.01358000     -2.75664700      0.74542600
C       0.00555300     -1.36502800      0.46465800
C       1.31164600     -0.78168700      0.19238800
C      -1.22955700     -3.52320900      0.69738100
C      -2.31029700     -3.00345000      0.05161800
C      -2.29270700     -1.62566500     -0.34077500
C      -1.28349200     -0.76479200      0.14528500
C       1.69984400      0.62577600      0.14062700
C       2.68059600      1.04526600     -0.79819100
C       3.49611900      0.04882000     -1.45529200
C       3.42119700     -1.23997400     -1.03472000
C      -3.29999200     -1.12799700     -1.25112400
C      -3.38735200      0.19856200     -1.52819200
C      -2.64980600      1.13148900     -0.70597000
C      -1.70029000      0.63162200      0.22522100
C      -2.99356100      2.50873500     -0.69935800
C      -2.54961000      3.33068200      0.31874200
C      -1.78921000      2.78258700      1.37601400
C      -1.38414600      1.46083200      1.32897800
C       1.31044700      1.57020200      1.12009900
C       1.65451400      2.90552300      1.01294900
C       2.44103000      3.35074800     -0.07293000
C       2.97234400      2.42601300     -0.95173700
H       3.25412100     -3.61143700      0.24789200
H       1.15249500     -4.52442500      1.27893900
H      -1.22889000     -4.53884200      1.08799800
H      -3.19813600     -3.59793200     -0.15529500
H       4.20655400      0.37022200     -2.21356700
H       4.11633200     -1.99793100     -1.39358400
H      -3.94414300     -1.85720200     -1.74063100
H      -4.05531700      0.58810500     -2.29293300
H      -3.63801100      2.89753600     -1.48570200
H      -2.80851500      4.38743700      0.33474100
H      -1.53491500      3.40695300      2.23018600
H      -0.83888300      1.02167800      2.17040500
H       0.77684100      1.20860100      2.00400200
H       1.33249500      3.61958500      1.76842200
H       2.65300900      4.41211400     -0.18423500
H       3.64440600      2.73969700     -1.74836500
          42
 Point   57
C       2.34934800     -1.66329200     -0.17850100
C       2.34130400     -3.01810200      0.28680700
C       1.20315100     -3.52295100      0.83874800
C      -0.01005600     -2.75703000      0.74738100
C       0.00403900     -1.36558500      0.46543000
C       1.30791800     -0.78021700      0.18603000
C      -1.22655300     -3.52376700      0.72052600
C      -2.31621300     -3.00693500      0.08748500
C      -2.30162900     -1.63260500     -0.31687200
C      -1.28727200     -0.76774100      0.15148500
C       1.69954100      0.62670800      0.15162800
C       2.67500800      1.05698600     -0.78781500
C       3.47979600      0.06751600     -1.46865600
C       3.40445800     -1.22721000     -1.06648500
C      -3.31523200     -1.14454100     -1.22552800
C      -3.39973600      0.17801800     -1.52203400
C      -2.65244000      1.12058200     -0.71967800
C      -1.70004600      0.63103400      0.21416100
C      -2.98916400      2.49955400     -0.73369800
C      -2.53497400      3.33594900      0.26815500
C      -1.77290800      2.80071900      1.33077400
C      -1.37587600      1.47589300      1.30350000
C       1.32137800      1.55638700      1.14972400
C       1.67399100      2.89114800      1.06403600
C       2.45544800      3.35062800     -0.01960400
C       2.97350900      2.43860600     -0.91952500
H       3.24919500     -3.61142300      0.19497900
H       1.16424900     -4.52636000      1.25783000
H      -1.22055500     -4.53732600      1.11645500
H      -3.20776600     -3.60169200     -0.10238700
H       4.18349500      0.39768400     -2.22945600
H       4.09284400     -1.98246700     -1.44380800
H      -3.96608300     -1.87854300     -1.69891600
H      -4.07206800      0.55850600     -2.28755100
H      -3.63618500      2.87875300     -1.52262700
H      -2.78748100      4.39441800      0.26779100
H      -1.51103300      3.43738800      2.17357600
H      -0.83327300      1.04611400      2.15147300
H       0.78697200      1.18365100      2.02873100
H       1.36244000      3.59383800      1.83450300
H       2.67375400      4.41249300     -0.11328000
H       3.64061800      2.76249900     -1.71627700
          42
 Point   58
C       2.34243400     -1.65967600     -0.19977900
C       2.33837700     -3.01739300      0.25710800
C       1.20725900     -3.52351900      0.82229400
C      -0.00711600     -2.75728300      0.74853600
C       0.00282500     -1.36593800      0.46589300
C       1.30486600     -0.77884700      0.18083600
C      -1.22388200     -3.52396600      0.73962700
C      -2.32096300     -3.00938800      0.11761300
C      -2.30902200     -1.63802800     -0.29670800
C      -1.29036200     -0.77002900      0.15661000
C       1.69950700      0.62740800      0.16102500
C       2.67081600      1.06666500     -0.77857400
C       3.46672100      0.08338600     -1.47877000
C       3.39070900     -1.21608900     -1.09211600
C      -3.32812200     -1.15794800     -1.20358200
C      -3.41045700      0.16104100     -1.51622800
C      -2.65482400      1.11140100     -0.73090400
C      -1.69974300      0.63053800      0.20477700
C      -2.98569200      2.49156800     -0.76217300
C      -2.52295800      3.33972300      0.22598500
C      -1.75909700      2.81535200      1.29271900
C      -1.36850800      1.48830500      1.28177300
C       1.33033400      1.54475400      1.17399800
C       1.68960900      2.87883500      1.10559700
C       2.46715900      3.35001600      0.02414500
C       2.97492600      2.44868500     -0.89235800
H       3.24433300     -3.61125100      0.15032900
H       1.17355900     -4.52825100      1.23869000
H      -1.21333800     -4.53576200      1.13993900
H      -3.21553200     -3.60417300     -0.05776700
H       4.16503600      0.42098300     -2.24126500
H       4.07347600     -1.96881900     -1.48450300
H      -3.98459600     -1.89573800     -1.66329500
H      -4.08675400      0.53393300     -2.28203400
H      -3.63489200      2.86272900     -1.55315200
H      -2.77032900      4.39936300      0.21206800
H      -1.49076100      3.46212000      2.12585400
H      -0.82768600      1.06650400      2.13486800
H       0.79532300      1.16298700      2.04891800
H       1.38623000      3.57201800      1.88789800
H       2.69045800      4.41206600     -0.05528500
H       3.63840100      2.78099000     -1.68870800
          42
 Point   59
C       2.33443700     -1.65496300     -0.22341100
C       2.33447600     -3.01595900      0.22352300
C       1.21145500     -3.52386100      0.80292900
C      -0.00377200     -2.75739300      0.74910000
C       0.00143700     -1.36609800      0.46612500
C       1.30136100     -0.77698200      0.17498600
C      -1.22034400     -3.52395300      0.76027000
C      -2.32568100     -3.01160700      0.15141300
C      -2.31721300     -1.64356800     -0.27360300
C      -1.29387200     -0.77231100      0.16243400
C       1.69951700      0.62814700      0.17158600
C       2.66658200      1.07746800     -0.76754200
C       3.45259100      0.10172900     -1.48882400
C       3.37537600     -1.20271500     -1.11985300
C      -3.34298100     -1.17237100     -1.17761300
C      -3.42339700      0.14218900     -1.50824500
C      -2.65817200      1.10082800     -0.74289100
C      -1.69955500      0.62989700      0.19421100
C      -2.98249900      2.48182100     -0.79388200
C      -2.50941700      3.34298400      0.17777200
C      -1.74277900      2.83120200      1.24851200
C      -1.35962300      1.50212400      1.25639200
C       1.33995900      1.53128000      1.20056500
C       1.70683600      2.86402600      1.15147400
C       2.48062000      3.34818700      0.07313300
C       2.97714700      2.45938800     -0.86127200
H       3.23789100     -3.61022100      0.10005900
H       1.18344400     -4.53021600      1.21578200
H      -1.20442100     -4.53390900      1.16493500
H      -3.22327900     -3.60624400     -0.00750400
H       4.14525000      0.44777500     -2.25260400
H       4.05178900     -1.95215000     -1.52878700
H      -4.00578800     -1.91403500     -1.62145700
H      -4.10464800      0.50655400     -2.27372500
H      -3.63470300      2.84374000     -1.58660400
H      -2.75098800      4.40351400      0.14828800
H      -1.46647000      3.48925100      2.06995900
H      -0.82042400      1.08970900      2.11494600
H       0.80383000      1.13964200      2.07048000
H       1.41228000      3.54618400      1.94650400
H       2.70970400      4.40996600      0.00962800
H       3.63690800      2.80111100     -1.65667200
          42
 Point   60  This is TS structure
C       2.32570400     -1.66248400     -0.24828600
C       2.32987000     -3.02700500      0.18767800
C       1.21566600     -3.53705700      0.78182500
C      -0.00018200     -2.77046100      0.74934900
C      -0.00009300     -1.37916500      0.46637500
C       1.29756000     -0.78779900      0.16895100
C      -1.21613200     -3.53689200      0.78187300
C      -2.33028600     -3.02669400      0.18775900
C      -2.32594600     -1.66218000     -0.24822700
C      -1.29767300     -0.78762800      0.16897000
C       1.69957800      0.61584100      0.18315400
C       2.66244500      1.07591200     -0.75496200
C       3.43798600      0.10867900     -1.49830200
C       3.35908100     -1.20082200     -1.14851800
C      -3.35927900     -1.20039600     -1.14844600
C      -3.43800600      0.10910600     -1.49826500
C      -2.66231100      1.07625000     -0.75497000
C      -1.69949500      0.61606800      0.18314400
C      -2.97965700      2.45772700     -0.82735100
C      -2.49477900      3.33268700      0.12566000
C      -1.72459500      2.83467600      1.20020300
C      -1.34967700      1.50373800      1.22870700
C       1.34990300      1.50352900      1.22874900
C       1.72501600      2.83441300      1.20028200
C       2.49525700      3.33234600      0.12574400
C       2.97999100      2.45734600     -0.82730300
H       3.23033300     -3.62151600      0.04646800
H       1.19363700     -4.54521400      1.19057900
H      -1.19422600     -4.54504800      1.19063600
H      -3.23083600     -3.62108200      0.04658800
H       4.12495800      0.46384700     -2.26293400
H       4.02863300     -1.94641200     -1.57492400
H      -4.02894700     -1.94590300     -1.57481600
H      -4.12494500      0.46435000     -2.26289100
H      -3.63562100      2.80958400     -1.62141200
H      -2.73002900      4.39385700      0.07915000
H      -1.43910700      3.50477100      2.00842800
H      -0.81203700      1.10168600      2.09294500
H       0.81221300      1.10152900      2.09298000
H       1.43963800      3.50452400      2.00853300
H       2.73066200      4.39348300      0.07926500
H       3.63599400      2.80913200     -1.62136300
          42
 Point   61
C       2.31697300     -1.64387000     -0.27366100
C       2.32526600     -3.01191600      0.15133200
C       1.21987900     -3.52411800      0.76022100
C       0.00341000     -2.75739400      0.74909800
C      -0.00162100     -1.36609700      0.46612400
C       1.29376100     -0.77248100      0.16241500
C      -1.21191800     -3.52369600      0.80297500
C      -2.33488900     -3.01564600      0.22360400
C      -2.33467700     -1.65465700     -0.22335100
C      -1.30147200     -0.77681000      0.17500600
C       1.69964100      0.62967000      0.19422100
C       2.65831000      1.10049100     -0.74288200
C       3.42338300      0.14176400     -1.50828000
C       3.34278800     -1.17279400     -1.17768300
C      -3.37557500     -1.20228600     -1.11977900
C      -3.45261300      0.10215800     -1.48878500
C      -2.66644800      1.07780700     -0.76754900
C      -1.69943300      0.62837400      0.17157600
C      -2.97681300      2.45976800     -0.86132000
C      -2.48013900      3.34852500      0.07304800
C      -1.70640900      2.86428500      1.15139400
C      -1.33972900      1.53148700      1.20052200
C       1.35984900      1.50191300      1.25643300
C       1.74319800      2.83093500      1.24858900
C       2.50989600      3.34264000      0.17785500
C       2.98283700      2.48143900     -0.79383400
H       3.22277700     -3.60667600     -0.00762400
H       1.20383200     -4.53407700      1.16487500
H      -1.18402900     -4.53005200      1.21583700
H      -3.23839100     -3.60978500      0.10018000
H       4.10466800      0.50605400     -2.27376400
H       4.00547900     -1.91453900     -1.62156200
H      -4.05210400     -1.95163600     -1.52867500
H      -4.14524000      0.44828100     -2.25255800
H      -3.63653700      2.80156300     -1.65672000
H      -2.70906800      4.41033500      0.00951100
H      -1.41174200      3.54642600      1.94639700
H      -0.80364800      1.13979800      2.07044300
H       0.82059800      1.08955100      2.11498000
H       1.46699800      3.48899900      2.07006100
H       2.75162200      4.40313500      0.14840200
H       3.63508200      2.84328800     -1.58655400
          42
 Point   62
C       2.30876600     -1.63831600     -0.29681500
C       2.32053900     -3.00969200      0.11746300
C       1.22342500     -3.52413100      0.73953600
C       0.00676200     -2.75728400      0.74853300
C      -0.00301200     -1.36593700      0.46589200
C       1.29024400     -0.77019400      0.15657900
C      -1.20771200     -3.52335500      0.82237900
C      -2.33879800     -3.01708300      0.25725900
C      -2.34269200     -1.65937900     -0.19966800
C      -1.30498400     -0.77867900      0.18086800
C       1.69983000      0.63031200      0.20481100
C       2.65495600      1.11108600     -0.73087000
C       3.41041700      0.16065800     -1.51627900
C       3.32789900     -1.15833800     -1.20370500
C      -3.39094200     -1.21568600     -1.09198200
C      -3.46677600      0.08377800     -1.47870900
C      -2.67069300      1.06698200     -0.77860400
C      -1.69942100      0.62763400      0.16099100
C      -2.97459100      2.44904200     -0.89246900
C      -2.46665100      3.35035600      0.02395700
C      -1.68914400      2.87912300      1.10541700
C      -1.33008000      1.54498800      1.17389600
C       1.36875200      1.48806400      1.28186900
C       1.75955000      2.81505000      1.29288900
C       2.52346400      3.33936900      0.22616700
C       2.98603600      2.49120500     -0.76206100
H       3.21501400     -3.60459700     -0.05798900
H       1.21276800     -4.53593300      1.13983000
H      -1.17412200     -4.52808500      1.23879000
H      -3.24484500     -3.61081700      0.15055300
H       4.08674000      0.53349400     -2.28209000
H       3.98424500     -1.89620000     -1.66348600
H      -4.07383900     -1.96833700     -1.48429700
H      -4.16507300      0.42143500     -2.24119500
H      -3.63804100      2.78139800     -1.68881900
H      -2.68978200      4.41243700     -0.05553800
H      -1.38563100      3.57231000      1.88766500
H      -0.79512000      1.16319000      2.04883400
H       0.82787100      1.06629700      2.13494400
H       1.49133900      3.46180700      2.12607300
H       2.77100200      4.39897100      0.21231200
H       3.63526800      2.86231600     -1.55303700
          42
 Point   63
C       2.30138900     -1.63290200     -0.31693300
C       2.31579500     -3.00724100      0.08739900
C       1.22608700     -3.52393100      0.72047200
C       0.00969500     -2.75703000      0.74737800
C      -0.00422300     -1.36558300      0.46542900
C       1.28716200     -0.76790800      0.15146500
C      -1.20361100     -3.52278700      0.83879400
C      -2.34171600     -3.01778700      0.28689300
C      -2.34959000     -1.66298400     -0.17843500
C      -1.30802900     -0.78004400      0.18605000
C       1.70013300      0.63080600      0.21417400
C       2.65258300      1.12024600     -0.71966400
C       3.39972700      0.17760100     -1.52206500
C       3.31504000     -1.14495500     -1.22559900
C      -3.40466300     -1.22677700     -1.06640200
C      -3.47982800      0.06794700     -1.46861100
C      -2.67488100      1.05732300     -0.78782300
C      -1.69945600      0.62693600      0.15161500
C      -2.97318300      2.43898100     -0.91957500
C      -2.45496900      3.35095900     -0.01969800
C      -1.67355800      2.89140300      1.06394200
C      -1.32114000      1.55659400      1.14967100
C       1.37609900      1.47567700      1.30354400
C       1.77332500      2.80044400      1.33085400
C       2.53545500      3.33559600      0.26824200
C       2.98950700      2.49916900     -0.73364500
H       3.20725900     -3.60211800     -0.10251500
H       1.21996600     -4.53749500      1.11638900
H      -1.16482900     -4.52619800      1.25788400
H      -3.24969100     -3.61098400      0.19510700
H       4.07209700      0.55801600     -2.28758400
H       3.96577500     -1.87903500     -1.69902300
H      -4.09316600     -1.98194600     -1.44368400
H      -4.18349900      0.39819200     -2.22940200
H      -3.64026200      2.76294400     -1.71632400
H      -2.67312000      4.41285200     -0.11340700
H      -1.36188800      3.59407300      1.83437900
H      -0.78677900      1.18380800      2.02868400
H       0.83343800      1.04595300      2.15150700
H       1.51155500      3.43712400      2.17367900
H       2.78811700      4.39402900      0.26791000
H       3.63657100      2.87830000     -1.52257000
          42
 Point   64
C       2.29246700     -1.62595900     -0.34083600
C       2.30988000     -3.00375400      0.05153300
C       1.22909100     -3.52337300      0.69732800
C       0.01321900     -2.75664800      0.74542200
C      -0.00573700     -1.36502600      0.46465700
C       1.28338200     -0.76495900      0.14526500
C      -1.19826500     -3.52216700      0.85745200
C      -2.34468200     -3.01845200      0.32200800
C      -2.35776100     -1.66696600     -0.15265700
C      -1.31175800     -0.78151300      0.19240800
C       1.70037700      0.63139400      0.22523400
C       2.64995000      1.13115400     -0.70595700
C       3.38734500      0.19814700     -1.52822300
C       3.29980100     -1.12840800     -1.25119400
C      -3.42140500     -1.23953800     -1.03463600
C      -3.49615500      0.04925300     -1.45524400
C      -2.68047100      1.04560300     -0.79819800
C      -1.69975900      0.62600300      0.14061400
C      -2.97202000      2.42638800     -0.95178700
C      -2.44054800      3.35107700     -0.07302700
C      -1.65407500      2.90577600      1.01285200
C      -1.31020600      1.57040700      1.12004500
C       1.38436800      1.46061500      1.32902200
C       1.78962600      2.78230900      1.37609600
C       2.55009200      3.33032800      0.31883000
C       2.99390500      2.50835000     -0.69930400
H       3.19763100     -3.59835500     -0.15541800
H       1.22830100     -4.53901000      1.08793400
H      -1.15307400     -4.52426600      1.27898800
H      -3.25461700     -3.61099800      0.24801700
H       4.05535000      0.58761800     -2.29296600
H       3.94383800     -1.85769000     -1.74073800
H      -4.11665800     -1.99740800     -1.39345800
H      -4.20656400      0.37073300     -2.21351000
H      -3.64405400      2.74014100     -1.74841000
H      -2.65237300      4.41247000     -0.18436700
H      -1.33193400      3.61981700      1.76829200
H      -0.77664500      1.20875700      2.00395500
H       0.83904500      1.02151600      2.17043900
H       1.53543600      3.40668400      2.23029300
H       2.80915200      4.38704400      0.33486100
H       3.63839800      2.89708300     -1.48564700
          42
 Point   65
C       2.28352100     -1.61893300     -0.36485000
C       2.30375300     -3.00026000      0.01516600
C       1.23191300     -3.52286600      0.67360800
C       0.01675000     -2.75620600      0.74330400
C      -0.00719600     -1.36439800      0.46379500
C       1.27966200     -0.76195800      0.13903200
C      -1.19290600     -3.52135500      0.87634600
C      -2.34762400     -3.01888400      0.35757400
C      -2.36590500     -1.67079000     -0.12664200
C      -1.31543200     -0.78288000      0.19874800
C       1.70078900      0.63193500      0.23643400
C       2.64763000      1.14202700     -0.69193500
C       3.37524800      0.21879400     -1.53406800
C       3.28467200     -1.11170600     -1.27666700
C      -3.43820400     -1.25219300     -1.00249200
C      -3.51263800      0.03056400     -1.44159300
C      -2.68612500      1.03383700     -0.80861600
C      -1.70000100      0.62511100      0.12942000
C      -2.97097600      2.41363800     -0.98414700
C      -2.42646800      3.35088800     -0.12650900
C      -1.63478000      2.91992800      0.96149300
C      -1.29914800      1.58421500      1.09005700
C       1.39262000      1.44548600      1.35447600
C       1.80568300      2.76408200      1.42115400
C       2.56470400      3.32491300      0.36942700
C       2.99870200      2.51737000     -0.66458500
H       3.18762600     -3.59463300     -0.20905500
H       1.23636900     -4.54070900      1.05852900
H      -1.14129400     -4.52205800      1.30050200
H      -3.25954100     -3.61066000      0.30169900
H       4.03896100      0.61738800     -2.29790300
H       3.92198400     -1.83610300     -1.78232000
H      -4.14020800     -2.01271500     -1.34266500
H      -4.22995300      0.34321800     -2.19716200
H      -3.64786400      2.71714900     -1.78069900
H      -2.63217800      4.41163800     -0.25543800
H      -1.30229400      3.64524500      1.70188800
H      -0.76612000      1.23382200      1.97869100
H       0.84467100      0.99705900      2.18934100
H       1.55874100      3.37617100      2.28649300
H       2.83006300      4.37985000      0.40174100
H       3.64099000      2.91565800     -1.44802900
          42
 Point   66
C       2.27447200     -1.61139300     -0.38842300
C       2.29693600     -2.99623200     -0.02126100
C       1.23409500     -3.52208200      0.64912500
C       0.02019800     -2.75552700      0.74056400
C      -0.00858800     -1.36348600      0.46271200
C       1.27603300     -0.75866900      0.13288600
C      -1.18719600     -3.52013000      0.89451700
C      -2.34988100     -3.01855900      0.39296100
C      -2.37366000     -1.67386100     -0.10041600
C      -1.31893900     -0.78384400      0.20507100
C       1.70140900      0.63237500      0.24758900
C       2.64603400      1.15252600     -0.67736800
C       3.36405400      0.23948500     -1.53859000
C       3.26993000     -1.09449000     -1.30091600
C      -3.45477700     -1.26381100     -0.96948000
C      -3.52930500      0.01254400     -1.42681900
C      -2.69208400      1.02208700     -0.81846300
C      -1.70023400      0.62422300      0.11821800
C      -2.97054500      2.40028500     -1.01593900
C      -2.41316700      3.34936700     -0.17986600
C      -1.61578200      2.93283200      0.90963500
C      -1.28788300      1.59749100      1.05945800
C       1.40026700      1.43032400      1.37893400
C       1.82093300      2.74537500      1.46468600
C       2.57933000      3.31851400      0.41909100
C       3.00431100      2.52548300     -0.62967000
H       3.17653200     -3.59022600     -0.26263800
H       1.24346000     -4.54226600      1.02776000
H      -1.12910500     -4.51953000      1.32088600
H      -3.26338500     -3.60934100      0.35530700
H       4.02393800      0.64714000     -2.30094800
H       3.90052000     -1.81364200     -1.82219500
H      -4.16336400     -2.02648900     -1.29072500
H      -4.25377800      0.31651400     -2.17913400
H      -3.65243300      2.69359300     -1.81204700
H      -2.61318400      4.40891400     -0.32630000
H      -1.27303500      3.66889500      1.63461600
H      -0.75486200      1.25862900      1.95230700
H       0.84934500      0.97305200      2.20699500
H       1.58047000      3.34522800      2.34033400
H       2.85097700      4.37124500      0.46734100
H       3.64503100      2.93301800     -1.40964100
          42
 Point   67
C       2.26551500     -1.60327400     -0.41139000
C       2.28982100     -2.99147700     -0.05723100
C       1.23584100     -3.52090400      0.62410300
C       0.02358500     -2.75473700      0.73677300
C      -0.01001100     -1.36235800      0.46119200
C       1.27242000     -0.75510900      0.12670700
C      -1.18094700     -3.51897400      0.91087300
C      -2.35132400     -3.01787500      0.42744900
C      -2.38115300     -1.67628400     -0.07389500
C      -1.32247500     -0.78447500      0.21150000
C       1.70202800      0.63274900      0.25849700
C       2.64508600      1.16269600     -0.66233300
C       3.35407500      0.26020200     -1.54158500
C       3.25592500     -1.07675600     -1.32369200
C      -3.47164400     -1.27437400     -0.93491400
C      -3.54697800     -0.00473700     -1.41000500
C      -2.69895500      1.01029500     -0.82707700
C      -1.70084700      0.62325400      0.10743000
C      -2.97112600      2.38623200     -1.04687700
C      -2.39967800      3.34678300     -0.23415800
C      -1.59595700      2.94492600      0.85613000
C      -1.27636700      1.61047700      1.02809100
C       1.40702400      1.41508800      1.40236400
C       1.83538100      2.72608500      1.50709100
C       2.59394400      3.31111400      0.46821200
C       3.01044800      2.53282600     -0.59458900
H       3.16499700     -3.58475100     -0.31514500
H       1.24978200     -4.54341500      0.99621100
H      -1.11620300     -4.51749100      1.33828800
H      -3.26587600     -3.60761000      0.40780800
H       4.01087900      0.67674700     -2.30172400
H       3.87998600     -1.79032800     -1.85995500
H      -4.18674900     -2.03866900     -1.23668400
H      -4.27909200      0.29084800     -2.15819600
H      -3.65888900      2.66922400     -1.84157700
H      -2.59366900      4.40461800     -0.39876900
H      -1.24210200      3.69154000      1.56455400
H      -0.74325300      1.28362700      1.92497100
H       0.85250700      0.94938300      2.22315700
H       1.60076400      3.31367200      2.39244000
H       2.87191900      4.36122200      0.53222400
H       3.64991000      2.94938700     -1.37077600
          42
 Point   68
C       2.25650800     -1.59515100     -0.43463600
C       2.28254700     -2.98678400     -0.09376100
C       1.23749200     -3.51976100      0.59869000
C       0.02699000     -2.75385300      0.73303700
C      -0.01138300     -1.36115600      0.45964500
C       1.26885800     -0.75151900      0.12045300
C      -1.17474700     -3.51758600      0.92780200
C      -2.35282900     -3.01701300      0.46255500
C      -2.38864000     -1.67865400     -0.04717200
C      -1.32595500     -0.78503200      0.21786900
C       1.70281800      0.63309900      0.26954700
C       2.64433600      1.17288200     -0.64711300
C       3.34413700      0.28100100     -1.54463500
C       3.24186900     -1.05896700     -1.34671600
C      -3.48850600     -1.28502900     -0.90019200
C      -3.56465900     -0.02217100     -1.39324600
C      -2.70581400      0.99844400     -0.83597100
C      -1.70137700      0.62235800      0.09632600
C      -2.97183600      2.37208600     -1.07814900
C      -2.38676000      3.34405000     -0.28855500
C      -1.57661000      2.95696400      0.80248600
C      -1.26483400      1.62355300      0.99636800
C       1.41399400      1.39974700      1.42602500
C       1.84999500      2.70669900      1.54977200
C       2.60881200      3.30366300      0.51770200
C       3.01696100      2.54013200     -0.55910600
H       3.15317300     -3.57943300     -0.36854500
H       1.25598800     -4.54468600      0.96404300
H      -1.10336100     -4.51506900      1.35662100
H      -3.26851000     -3.60562000      0.46127700
H       3.99780500      0.70651300     -2.30256700
H       3.85932000     -1.76693700     -1.89811600
H      -4.21011600     -2.05099900     -1.18234200
H      -4.30449000      0.26490200     -2.13728300
H      -3.66529300      2.64470900     -1.87160500
H      -2.57505800      4.40010200     -0.47120800
H      -1.21194700      3.71408800      1.49446200
H      -0.73132100      1.30881700      1.89711700
H       0.85596300      0.92554500      2.23956500
H       1.62117200      3.28198000      2.44484700
H       2.89315100      4.35113400      0.59758800
H       3.65539400      2.96572300     -1.33131400
          42
 Point   69
C       2.24740900     -1.58656500     -0.45747800
C       2.27457200     -2.98155300     -0.13029200
C       1.23846500     -3.51826200      0.57270400
C       0.03028400     -2.75265900      0.72885300
C      -0.01266500     -1.35961800      0.45795900
C       1.26542000     -0.74765000      0.11430500
C      -1.16825300     -3.51569500      0.94417200
C      -2.35358100     -3.01533300      0.49747900
C      -2.39558800     -1.68021900     -0.02033500
C      -1.32920000     -0.78511000      0.22420000
C       1.70387000      0.63332700      0.28056500
C       2.64426300      1.18262000     -0.63148500
C       3.33495500      0.30169300     -1.54664300
C       3.22812800     -1.04078800     -1.36872700
C      -3.50481700     -1.29461100     -0.86486100
C      -3.58219200     -0.03888500     -1.37562900
C      -2.71288300      0.98665800     -0.84440800
C      -1.70187100      0.62154000      0.08514800
C      -2.97330400      2.35733600     -1.10888700
C      -2.37520600      3.33993600     -0.34263800
C      -1.55815900      2.96769800      0.74849900
C      -1.25327300      1.63612200      0.96398600
C       1.42057500      1.38434900      1.44888300
C       1.86414500      2.68680500      1.59120600
C       2.62388800      3.29518600      0.56640100
C       3.02427900      2.54646000     -0.52351200
H       3.14023200     -3.57344500     -0.42187100
H       1.26114200     -4.54569200      0.93077500
H      -1.09026200     -4.51220300      1.37409400
H      -3.26997600     -3.60258600      0.51462200
H       3.98584100      0.73605000     -2.30194400
H       3.83894000     -1.74283400     -1.93486600
H      -4.23262300     -2.06177500     -1.12722500
H      -4.32984800      0.23982900     -2.11505100
H      -3.67248700      2.61961000     -1.90080700
H      -2.55852500      4.39360300     -0.54309300
H      -1.18310800      3.73475600      1.42379500
H      -0.71858900      1.33386400      1.86793800
H       0.85880600      0.90209800      2.25498100
H       1.64056100      3.24984400      2.49534900
H       2.91463900      4.33959700      0.66188800
H       3.66222400      2.98075600     -1.29127700
          42
 Point   70
C       2.23860100     -1.57749800     -0.47957000
C       2.26646200     -2.97566100     -0.16618100
C       1.23898500     -3.51639400      0.54621900
C       0.03347200     -2.75136200      0.72347800
C      -0.01394900     -1.35785900      0.45572900
C       1.26211100     -0.74356800      0.10815900
C      -1.16130200     -3.51392600      0.95846200
C      -2.35351500     -3.01330900      0.53126900
C      -2.40219600     -1.68107900      0.00667500
C      -1.33241900     -0.78479100      0.23052300
C       1.70506100      0.63342600      0.29139900
C       2.64496800      1.19190800     -0.61538000
C       3.32728500      0.32218600     -1.54701500
C       3.21544800     -1.02228800     -1.38907000
C      -3.52137300     -1.30303600     -0.82795300
C      -3.60085100     -0.05468100     -1.35575800
C      -2.72104200      0.97495300     -0.85141100
C      -1.70276600      0.62072200      0.07436300
C      -2.97620000      2.34195500     -1.13846300
C      -2.36385800      3.33476100     -0.39755600
C      -1.53903900      2.97761100      0.69271500
C      -1.24140900      1.64846100      0.93060600
C       1.42642500      1.36889900      1.47081600
C       1.87743900      2.66644700      1.63146200
C       2.63871400      3.28580800      0.61435700
C       3.03207800      2.55196700     -0.48786700
H       3.12710500     -3.56645800     -0.47377700
H       1.26541800     -4.54629100      0.89680400
H      -1.07662000     -4.50992700      1.38824400
H      -3.27008600     -3.59917100      0.56656400
H       3.97621800      0.76512900     -2.29894300
H       3.81993400     -1.71813700     -1.96919000
H      -4.25521400     -2.07086800     -1.06999400
H      -4.35687800      0.21605700     -2.08955000
H      -3.68216900      2.59377100     -1.92766600
H      -2.54202400      4.38547800     -0.61643100
H      -1.15270600      3.75437500      1.35005400
H      -0.70512800      1.35928700      1.83735500
H       0.86055800      0.87897500      2.26915500
H       1.65841300      3.21733300      2.54404900
H       2.93566400      4.32683100      0.72510300
H       3.66981800      2.99470300     -1.25093000
          42
 Point   71
C       2.22975200     -1.56843000     -0.50192500
C       2.25817400     -2.96981600     -0.20257000
C       1.23939300     -3.51451200      0.51943300
C       0.03667700     -2.74991600      0.71821600
C      -0.01517500     -1.35598700      0.45347000
C       1.25886300     -0.73944600      0.10192000
C      -1.15438900     -3.51185300      0.97339200
C      -2.35347100     -3.01105100      0.56567000
C      -2.40875900     -1.68185500      0.03383100
C      -1.33556800     -0.78436200      0.23672900
C       1.70645100      0.63349400      0.30233700
C       2.64589700      1.20118400     -0.59913700
C       3.31966300      0.34272000     -1.54747900
C       3.20273500     -1.00376100     -1.40965300
C      -3.53785500     -1.31155200     -0.79098300
C      -3.61946300     -0.07064100     -1.33604900
C      -2.72921600      0.96319400     -0.85875000
C      -1.70358700      0.61999600      0.06318300
C      -2.97938700      2.32647800     -1.16833500
C      -2.35339500      3.32944500     -0.45242700
C      -1.52062700      2.98747000      0.63686500
C      -1.22957500      1.66089300      0.89680300
C       1.43256200      1.35330200      1.49297000
C       1.89107500      2.64591200      1.67204500
C       2.65397400      3.27629600      0.66273200
C       3.04032500      2.55738900     -0.45184300
H       3.11364600     -3.55962900     -0.52650900
H       1.26954400     -4.54694700      0.86233900
H      -1.06302900     -4.50717000      1.40344100
H      -3.27028100     -3.59543300      0.61945300
H       3.96658100      0.79430700     -2.29605600
H       3.80081700     -1.69340000     -2.00388700
H      -4.27768000     -2.08012400     -1.01257900
H      -4.38389800      0.19197300     -2.06421400
H      -3.69196900      2.56776700     -1.95497900
H      -2.52690300      4.37714600     -0.68946200
H      -1.12339400      3.77388700      1.27641800
H      -0.69125500      1.38490600      1.80609500
H       0.86265800      0.85562800      2.28354700
H       1.67664700      3.18457000      2.59315300
H       2.95724300      4.31389300      0.78890900
H       3.67806200      3.00856700     -1.21003400
          42
 Point   72
C       2.22086800     -1.55896800     -0.52384200
C       2.24923200     -2.96344200     -0.23878800
C       1.23911800     -3.51220200      0.49232700
C       0.03975000     -2.74810300      0.71264700
C      -0.01629100     -1.35373800      0.45112300
C       1.25579100     -0.73507700      0.09583500
C      -1.14723700     -3.50921500      0.98783400
C      -2.35261500     -3.00793400      0.59977400
C      -2.41464900     -1.68178400      0.06093900
C      -1.33842000     -0.78338000      0.24281400
C       1.70817900      0.63338900      0.31329900
C       2.64742700      1.20994500     -0.58260400
C       3.31266400      0.36300800     -1.54711400
C       3.19031800     -0.98497000     -1.42933100
C      -3.55352400     -1.31898400     -0.75368100
C      -3.63770900     -0.08583300     -1.31569100
C      -2.73758900      0.95156500     -0.86568700
C      -1.70434600      0.61942800      0.05182000
C      -2.98360700      2.31043600     -1.19760100
C      -2.34487800      3.32281600     -0.50678400
C      -1.50356000      2.99608200      0.58069700
C      -1.21775600      1.67288500      0.86213400
C       1.43863200      1.33752400      1.51458400
C       1.90460700      2.62476300      1.71166800
C       2.66951600      3.26570900      0.71040900
C       3.04925000      2.56179800     -0.41582900
H       3.09913300     -3.55215300     -0.57896300
H       1.27257700     -4.54720800      0.82714700
H      -1.04932800     -4.50388600      1.41792400
H      -3.26923600     -3.59062000      0.67201200
H       3.95781700      0.82306800     -2.29204800
H       3.78197600     -1.66810500     -2.03732000
H      -4.29887800     -2.08785700     -0.95479900
H      -4.41055800      0.16882600     -2.03782100
H      -3.70283800      2.54117900     -1.98136600
H      -2.51474100      4.36690700     -0.76155200
H      -1.09600700      3.79158700      1.20226900
H      -0.67618400      1.41055300      1.77301100
H       0.86475900      0.83242100      2.29734200
H       1.69448500      3.15122100      2.64081700
H       2.97911900      4.29948300      0.85176400
H       3.68734700      3.02112000     -1.16882400
          42
 Point   73
C       2.21252000     -1.54917500     -0.54480900
C       2.24039800     -2.95651300     -0.27405400
C       1.23842900     -3.50955400      0.46491800
C       0.04267200     -2.74619500      0.70582900
C      -0.01737200     -1.35127800      0.44815100
C       1.25298500     -0.73059900      0.08984300
C      -1.13974900     -3.50674100      0.99997600
C      -2.35094900     -3.00447900      0.63244600
C      -2.42007900     -1.68095300      0.08798300
C      -1.34116500     -0.78192600      0.24870000
C       1.71021300      0.63303200      0.32421200
C       2.64973600      1.21814900     -0.56562400
C       3.30730900      0.38287600     -1.54509100
C       3.17924900     -0.96607700     -1.44716800
C      -3.56930100     -1.32517400     -0.71492700
C      -3.65713700     -0.09988500     -1.29293000
C      -2.74722700      0.94020500     -0.87097500
C      -1.70546500      0.61896500      0.04072400
C      -2.98981900      2.29394100     -1.22523000
C      -2.33714600      3.31523500     -0.56175200
C      -1.48593100      3.00390400      0.52245300
C      -1.20539600      1.68471300      0.82596900
C       1.44431700      1.32154400      1.53552400
C       1.91734300      2.60315900      1.75017900
C       2.68445500      3.25434000      0.75715300
C       3.05837900      2.56540800     -0.37994700
H       3.08479900     -3.54380800     -0.62949900
H       1.27470200     -4.54705600      0.79154900
H      -1.03533600     -4.50125900      1.42884600
H      -3.26686700     -3.58543600      0.72277500
H       3.95150000      0.85108100     -2.28571800
H       3.76493100     -1.64250100     -2.06805700
H      -4.31988600     -2.09387700     -0.89511600
H      -4.43899200      0.14729700     -2.00786300
H      -3.71705100      2.51405800     -2.00457100
H      -2.50351500      4.35512900     -0.83468000
H      -1.06699600      3.80820800      1.12453500
H      -0.65950900      1.43676900      1.73756000
H       0.86659300      0.80920600      2.31038300
H       1.71092700      3.11756700      2.68678200
H       2.99985500      4.28411200      0.91316400
H       3.69693600      3.03265600     -1.12762100
          42
 Point   74
C       2.20418700     -1.53940000     -0.56597300
C       2.23141000     -2.94964000     -0.30971300
C       1.23762400     -3.50687300      0.43728600
C       0.04561100     -2.74411300      0.69912600
C      -0.01838900     -1.34868500      0.44511000
C       1.25027200     -0.72608800      0.08375400
C      -1.13228600     -3.50392500      1.01273300
C      -2.34927900     -3.00075000      0.66566300
C      -2.42544900     -1.68001000      0.11510800
C      -1.34382700     -0.78034300      0.25438100
C       1.71248000      0.63262600      0.33520400
C       2.65230900      1.22630600     -0.54852900
C       3.30207500      0.40273000     -1.54312800
C       3.16824900     -0.94720700     -1.46514300
C      -3.58500400     -1.33143800     -0.67614800
C      -3.67655000     -0.11408600     -1.27035400
C      -2.75694000      0.92881100     -0.87661300
C      -1.70651800      0.61860600      0.02914800
C      -2.99648400      2.27738000     -1.25307700
C      -2.33054200      3.30757100     -0.61651500
C      -1.46915400      3.01169500      0.46418200
C      -1.19307100      1.69662200      0.78928200
C       1.45034300      1.30538400      1.55666800
C       1.93049900      2.58133800      1.78900000
C       2.69989200      3.24279500      0.80428600
C       3.06798400      2.56890000     -0.34373500
H       3.07015500     -3.53563700     -0.68070700
H       1.27664200     -4.54692800      0.75556900
H      -1.02138300     -4.49811200      1.44078700
H      -3.26454300     -3.57988700      0.77439800
H       3.94525600      0.87911800     -2.27946500
H       3.74791800     -1.61691700     -2.09900400
H      -4.34075200     -2.10005000     -0.83528400
H      -4.46745200      0.12547000     -1.97807500
H      -3.73156900      2.48680200     -2.02811700
H      -2.49403500      4.34323300     -0.90722500
H      -1.03923600      3.82473700      1.04697800
H      -0.64226900      1.46314100      1.70121300
H       0.86884000      0.78571700      2.32362800
H       1.72787500      3.08360400      2.73315200
H       3.02122600      4.26852000      0.97513500
H       3.70718200      3.04407100     -1.08593300
          42
 Point   75
C       2.19593200     -1.52933700     -0.58662100
C       2.22187700     -2.94229700     -0.34500800
C       1.23616800     -3.50375000      0.40957400
C       0.04840400     -2.74164600      0.69222700
C      -0.01927000     -1.34571300      0.44200500
C       1.24781500     -0.72140800      0.07789100
C      -1.12465500     -3.50051200      1.02504300
C      -2.34677600     -2.99612800      0.69845200
C      -2.43003600     -1.67818100      0.14201100
C      -1.34612700     -0.77815100      0.25982400
C       1.71517300      0.63194200      0.34632300
C       2.65537100      1.23389400     -0.53122300
C       3.29735800      0.42222400     -1.54046600
C       3.15759800     -0.92819900     -1.48223700
C      -3.59968800     -1.33659400     -0.63727300
C      -3.69542800     -0.12743400     -1.24726600
C      -2.76683400      0.91765500     -0.88185800
C      -1.70744800      0.61847200      0.01724600
C      -3.00442400      2.26038700     -1.28016100
C      -2.32635400      3.29877900     -0.67054200
C      -1.45399400      3.01833600      0.40551800
C      -1.18067700      1.70812000      0.75138400
C       1.45661600      1.28882700      1.57754500
C       1.94373200      2.55878500      1.82707700
C       2.71543500      3.23019200      0.85072700
C       3.07798900      2.57141300     -0.30766100
H       3.05460400     -3.52690100     -0.73139600
H       1.27748700     -4.54634600      0.71920200
H      -1.00748500     -4.49438900      1.45212900
H      -3.26097300     -3.57322300      0.82548000
H       3.93968000      0.90660400     -2.27233000
H       3.73128700     -1.59092700     -2.12872300
H      -4.36004300     -2.10472500     -0.77543200
H      -4.49531300      0.10469600     -1.94737800
H      -3.74744500      2.45908200     -2.05047500
H      -2.48824700      4.32968100     -0.97839200
H      -1.01370500      3.83955500      0.96879000
H      -0.62313000      1.48961900      1.66222500
H       0.87182600      0.76192300      2.33674300
H       1.74480500      3.04890200      2.77841600
H       3.04256800      4.25155700      1.03612200
H       3.71799000      3.05428600     -1.04418900
          42
 Point   76
C       2.18849400     -1.51916200     -0.60607600
C       2.21276100     -2.93457900     -0.37895400
C       1.23439800     -3.50035800      0.38189000
C       0.05101000     -2.73912200      0.68410200
C      -0.02006400     -1.34257700      0.43823100
C       1.24579500     -0.71678400      0.07227900
C      -1.11685600     -3.49731100      1.03488700
C      -2.34350200     -2.99118100      0.72945200
C      -2.43402000     -1.67555400      0.16849600
C      -1.34821400     -0.77543100      0.26479800
C       1.71836400      0.63080700      0.35761200
C       2.65911500      1.24082600     -0.51349400
C       3.29427400      0.44108000     -1.53616700
C       3.14854000     -0.90935300     -1.49732400
C      -3.61426300     -1.34045000     -0.59723900
C      -3.71547700     -0.13935800     -1.22167100
C      -2.77815500      0.90704900     -0.88517700
C      -1.70862100      0.61854800      0.00538600
C      -3.01503000      2.24329200     -1.30487000
C      -2.32364100      3.28929300     -0.72476600
C      -1.43824000      3.02422100      0.34434500
C      -1.16726600      1.71944600      0.71115200
C       1.46294100      1.27179500      1.59810200
C       1.95618700      2.53578500      1.86412200
C       2.72984100      3.21702900      0.89600000
C       3.08771800      2.57324600     -0.27195300
H       3.03969300     -3.51752200     -0.77956800
H       1.27748800     -4.54537100      0.68293200
H      -0.99363100     -4.49137800      1.45978200
H      -3.25617700     -3.56619100      0.87427300
H       3.93641400      0.93308900     -2.26303600
H       3.71683700     -1.56496100     -2.15550300
H      -4.37873100     -2.10774400     -0.71418600
H      -4.52494500      0.08594600     -1.91287100
H      -3.76773600      2.43129500     -2.06835500
H      -2.48456900      4.31489900     -1.04980200
H      -0.98618600      3.85318300      0.88621400
H      -0.60089100      1.51670300      1.61918900
H       0.87559000      0.73754900      2.34975800
H       1.76046500      3.01397400      2.82209400
H       3.06181400      4.23409900      1.09519100
H       3.72833200      3.06371600     -1.00286800
          42
 Point   77
C       2.18121400     -1.50904900     -0.62559000
C       2.20361400     -2.92694800     -0.41310500
C       1.23253400     -3.49694900      0.35404300
C       0.05363300     -2.73643200      0.67600500
C      -0.02078500     -1.33931300      0.43427300
C       1.24392300     -0.71215800      0.06656000
C      -1.10906700     -3.49377600      1.04519600
C      -2.34021300     -2.98594300      0.76086100
C      -2.43795500     -1.67278700      0.19499200
C      -1.35021000     -0.77258100      0.26942400
C       1.72182800      0.62959200      0.36895000
C       2.66318800      1.24766900     -0.49565700
C       3.29150600      0.45983900     -1.53180800
C       3.13979400     -0.89061100     -1.51233000
C      -3.62887600     -1.34431400     -0.55707800
C      -3.73568900     -0.15135900     -1.19611500
C      -2.78967100      0.89646000     -0.88880000
C      -1.70974400      0.61872500     -0.00707600
C      -3.02628200      2.22621300     -1.32966000
C      -2.32223600      3.27982800     -0.77863600
C      -1.42339300      3.03009600      0.28311800
C      -1.15384900      1.73081000      0.67022300
C       1.46960900      1.25456300      1.61880600
C       1.96903600      2.51256600      1.90140300
C       2.74469500      3.20369600      0.94157500
C       3.09790700      2.57495000     -0.23598100
H       3.02463900     -3.50834700     -0.82810400
H       1.27727000     -4.54443400      0.64634500
H      -0.97980200     -4.48787600      1.46825500
H      -3.25140000     -3.55877900      0.92377300
H       3.93347200      0.95949100     -2.25366400
H       3.70276500     -1.53912300     -2.18215700
H      -4.39743100     -2.11083100     -0.65259300
H      -4.55487700      0.06700600     -1.87825400
H      -3.78859600      2.40347500     -2.08634100
H      -2.48288700      4.30015600     -1.12037400
H      -0.95994200      3.86672600      0.80378800
H      -0.57786000      1.54381900      1.57490700
H       0.87973900      0.71288400      2.36290600
H       1.77660600      2.97873200      2.86609800
H       3.08161000      4.21643800      1.15472200
H       3.73929700      3.07301700     -0.96114100
          42
 Point   78
C       2.17415200     -1.49878500     -0.64453700
C       2.19406900     -2.91896200     -0.44676700
C       1.23009100     -3.49315000      0.32628300
C       0.05610900     -2.73339200      0.66778200
C      -0.02133500     -1.33571900      0.43024200
C       1.24239700     -0.70747400      0.06111200
C      -1.10119200     -3.48965000      1.05509900
C      -2.33611800     -2.97979800      0.79176400
C      -2.44104300     -1.66911400      0.22113800
C      -1.35178300     -0.76912300      0.27368400
C       1.72575900      0.62797800      0.38047900
C       2.66768300      1.25389100     -0.47762300
C       3.28924300      0.47813100     -1.52678700
C       3.13151000     -0.87188600     -1.52644800
C      -3.64233300     -1.34701200     -0.51694200
C      -3.75520300     -0.16236600     -1.17008200
C      -2.80127800      0.88625700     -0.89199700
C      -1.71065000      0.61914800     -0.02000700
C      -3.03885800      2.20894200     -1.35346400
C      -2.32349500      3.26948900     -0.83146600
C      -1.41031300      3.03484800      0.22144600
C      -1.14025400      1.74163400      0.62770000
C       1.47655200      1.23680600      1.63933800
C       1.98177500      2.48865100      1.93795800
C       2.75932900      3.18944100      0.98640200
C       3.10825400      2.57574800     -0.20020700
H       3.00887200     -3.49874900     -0.87597900
H       1.27601100     -4.54306400      0.60962200
H      -0.96619200     -4.48379300      1.47623900
H      -3.24543900     -3.55021300      0.97262900
H       3.93114000      0.98523400     -2.24349600
H       3.68924600     -1.51306300     -2.20758900
H      -4.41437900     -2.11238600     -0.59115400
H      -4.58398600      0.04932300     -1.84273400
H      -3.81083100      2.37550500     -2.10280100
H      -2.48530700      4.28414800     -1.18902600
H      -0.93608300      3.87852800      0.72062000
H      -0.55212300      1.57075900      1.52690200
H       0.88485100      0.68761400      2.37612000
H       1.79252600      2.94282400      2.90902900
H       3.10089900      4.19765900      1.21318300
H       3.75051200      3.08123900     -0.91945100
          42
 Point   79
C       2.16817400     -1.48868800     -0.66206900
C       2.18526900     -2.91085400     -0.47867300
C       1.22749000     -3.48920600      0.29896300
C       0.05837700     -2.73035600      0.65844400
C      -0.02174000     -1.33204500      0.42550700
C       1.24148200     -0.70303000      0.05605500
C      -1.09332800     -3.48578900      1.06247900
C      -2.33131800     -2.97338100      0.82050500
C      -2.44338500     -1.66468100      0.24641200
C      -1.35304000     -0.76514500      0.27715300
C       1.73033900      0.62571000      0.39233000
C       2.67287700      1.25929400     -0.45913900
C       3.28867800      0.49549100     -1.52012200
C       3.12504700     -0.85368200     -1.53842700
C      -3.65537500     -1.34843100     -0.47614000
C      -3.77575900     -0.17163100     -1.14150000
C      -2.81443200      0.87697200     -0.89287100
C      -1.71166400      0.61983100     -0.03314000
C      -3.05478800      2.19214700     -1.37376600
C      -2.32695600      3.25887000     -0.88367800
C      -1.39653600      3.03877600      0.15688700
C      -1.12506400      1.75204400      0.58179200
C       1.48354500      1.21856200      1.65962300
C       1.99339000      2.46458500      1.97332500
C       2.77235200      3.17495500      1.02979000
C       3.11806200      2.57594200     -0.16495800
H       2.99425100     -3.48882800     -0.92074100
H       1.27407400     -4.54137000      0.57362200
H      -0.95298400     -4.48044600      1.48060700
H      -3.23840000     -3.54133200      1.01865300
H       3.93107600      1.00964700     -2.23128700
H       3.67822000     -1.48749500     -2.22991600
H      -4.43017600     -2.11249800     -0.52921600
H      -4.61466900      0.03413900     -1.80326700
H      -3.83860500      2.34832600     -2.11289800
H      -2.49112200      4.26749600     -1.25647900
H      -0.90970900      3.88880600      0.63219600
H      -0.52139600      1.59780200      1.47241900
H       0.89067700      0.66177900      2.38934700
H       1.80664400      2.90723100      2.95011900
H       3.11731600      4.17896700      1.26926200
H       3.76090000      3.08876500     -0.87843000
          42
 Point   80
C       2.16260600     -1.47874800     -0.67947900
C       2.17666100     -2.90291200     -0.51056200
C       1.22485500     -3.48529900      0.27150900
C       0.06067900     -2.72718900      0.64894600
C      -0.02204500     -1.32827200      0.42037400
C       1.24080800     -0.69864600      0.05083700
C      -1.08545800     -3.48163900      1.07006000
C      -2.32649100     -2.96668400      0.84945500
C      -2.44569800     -1.66008000      0.27160900
C      -1.35419500     -0.76105900      0.28006100
C       1.73522500      0.62332900      0.40413900
C       2.67855900      1.26453100     -0.44053000
C       3.28883600      0.51259700     -1.51316600
C       3.11933700     -0.83574300     -1.54999400
C      -3.66865200     -1.34973300     -0.43495300
C      -3.79681000     -0.18080800     -1.11258800
C      -2.82798600      0.86780200     -0.89390600
C      -1.71265900      0.62059400     -0.04703000
C      -3.07161300      2.17552100     -1.39389400
C      -2.33187800      3.24841700     -0.93534200
C      -1.38366800      3.04269600      0.09221500
C      -1.10982500      1.76240500      0.53495800
C       1.49068100      1.20020600      1.67985700
C       2.00512800      2.44041500      2.00872200
C       2.78567700      3.16035400      1.07333700
C       3.12837600      2.57597600     -0.12948900
H       2.97978500     -3.47919800     -0.96548200
H       1.27189900     -4.53976800      0.53734500
H      -0.93977500     -4.47668800      1.48545600
H      -3.23135700     -3.53207800      1.06518800
H       3.93189200      1.03377000     -2.21867100
H       3.66816900     -1.46227000     -2.25160800
H      -4.44624800     -2.11250600     -0.46648300
H      -4.64617200      0.01901600     -1.76303600
H      -3.86729300      2.32132300     -2.12269000
H      -2.49910600      4.25110500     -1.32278400
H      -0.88454100      3.89896700      0.54382800
H      -0.48973300      1.62461600      1.41625800
H       0.89645800      0.63585400      2.40240600
H       1.82081900      2.87149800      2.99127100
H       3.13408300      4.16014700      1.32563700
H       3.77204400      3.09609100     -0.83699200
          42
 Point   81
C       2.15737800     -1.46876000     -0.69640000
C       2.16781200     -2.89472000     -0.54202600
C       1.22174700     -3.48109500      0.24411000
C       0.06285900     -2.72375200      0.63928700
C      -0.02215200     -1.32426200      0.41504600
C       1.24050700     -0.69426200      0.04575200
C      -1.07753000     -3.47694700      1.07728500
C      -2.32090300     -2.95912300      0.87798100
C      -2.44718800     -1.65462400      0.29648900
C      -1.35491500     -0.75648500      0.28249500
C       1.74042300      0.62055400      0.41594800
C       2.68483000      1.26906300     -0.42165000
C       3.28980900      0.52908700     -1.50544000
C       3.11430200     -0.81800200     -1.56068900
C      -3.68077500     -1.34976900     -0.39359300
C      -3.81704100     -0.18881700     -1.08299900
C      -2.84144700      0.85915200     -0.89443600
C      -1.71337900      0.62150100     -0.06147600
C      -3.08943300      2.15899500     -1.41281300
C      -2.33926300      3.23730300     -0.98557800
C      -1.37264600      3.04530900      0.02726000
C      -1.09449100      1.77178900      0.48634700
C       1.49719800      1.18173200      1.69942300
C       2.01592500      2.41598100      2.04307100
C       2.79866800      3.14500400      1.11618900
C       3.13910900      2.57505000     -0.09401600
H       2.96482400     -3.46925700     -1.00965700
H       1.26880300     -4.53782200      0.50091400
H      -0.92683800     -4.47239100      1.48991400
H      -3.22318900     -3.52170200      1.11126100
H       3.93377400      1.05706300     -2.20504400
H       3.65890700     -1.43706100     -2.27212800
H      -4.46066000     -2.11082500     -0.40357500
H      -4.67670800      0.00543500     -1.72158000
H      -3.89681000      2.29467600     -2.13068900
H      -2.51086800      4.23385500     -1.38658600
H      -0.86195800      3.90708800      0.45487800
H      -0.45517600      1.65020400      1.35540000
H       0.90136000      0.61012900      2.41464300
H       1.83343300      2.83574000      3.03088500
H       3.15039800      4.14036700      1.38115800
H       3.78408100      3.10212700     -0.79516500
          42
 Point   82
C       2.15340000     -1.45922000     -0.71184100
C       2.15996500     -2.88667900     -0.57153700
C       1.21866600     -3.47691800      0.21744200
C       0.06485700     -2.72042200      0.62865000
C      -0.02205500     -1.32030400      0.40899200
C       1.24090600     -0.69026300      0.04105500
C      -1.06973800     -3.47261600      1.08206200
C      -2.31466700     -2.95145100      0.90406700
C      -2.44780600     -1.64857300      0.32009300
C      -1.35525300     -0.75152000      0.28393800
C       1.74618900      0.61707400      0.42796000
C       2.69205200      1.27250300     -0.40223900
C       3.29277800      0.54422800     -1.49601100
C       3.11127600     -0.80121600     -1.56924500
C      -3.69207900     -1.34866800     -0.35216400
C      -3.83795300     -0.19479300     -1.05084900
C      -2.85640900      0.85181800     -0.89206300
C      -1.71409100      0.62261300     -0.07616500
C      -3.11094100      2.14370400     -1.42678000
C      -2.34922800      3.22639600     -1.03399400
C      -1.36070900      3.04685400     -0.04073000
C      -1.07710400      1.78020100      0.43342700
C       1.50260600      1.16353800      1.71818700
C       2.02443700      2.39226100      2.07567600
C       2.80981200      3.12974700      1.15739200
C       3.14961900      2.57333600     -0.05900400
H       2.95142700     -3.45933700     -1.05042000
H       1.26528000     -4.53568300      0.46568200
H      -0.91454400     -4.46886000      1.49103300
H      -3.21407500     -3.51119100      1.15405200
H       3.93827600      1.07852000     -2.18933200
H       3.65228700     -1.41291600     -2.28958800
H      -4.47324600     -2.10810400     -0.34138700
H      -4.70823400     -0.00518100     -1.67620000
H      -3.93247300      2.27005000     -2.13007000
H      -2.52678500      4.21675500     -1.44722300
H      -0.83623200      3.91306000      0.35991500
H      -0.41425100      1.67464500      1.28535900
H       0.90434000      0.58546600      2.42580600
H       1.84225900      2.80174700      3.06780100
H       3.16368600      4.12108000      1.43404400
H       3.79603900      3.10698500     -0.75378200
          42
 Point   83
C       2.15015000     -1.44999100     -0.72701400
C       2.15257500     -2.87895200     -0.60085100
C       1.21563200     -3.47287800      0.19062300
C       0.06692300     -2.71701600      0.61761200
C      -0.02180800     -1.31630100      0.40224100
C       1.24167000     -0.68641200      0.03605400
C      -1.06190200     -3.46805100      1.08674100
C      -2.30837400     -2.94351700      0.93015700
C      -2.44839900     -1.64233400      0.34352900
C      -1.35545300     -0.74649700      0.28454800
C       1.75226100      0.61345800      0.43973100
C       2.70005900      1.27563200     -0.38266200
C       3.29714800      0.55883300     -1.48594300
C       3.10961900     -0.78497300     -1.57699900
C      -3.70381900     -1.34725500     -0.30996800
C      -3.85970800     -0.20042600     -1.01785200
C      -2.87194900      0.84473600     -0.88967200
C      -1.71481500      0.62375700     -0.09179100
C      -3.13352900      2.12882300     -1.44022700
C      -2.36073200      3.21584000     -1.08154800
C      -1.34973700      3.04836300     -0.10873100
C      -1.05975600      1.78842200      0.37946700
C       1.50766600      1.14547500      1.73649600
C       2.03241900      2.36874500      2.10789900
C       2.82095400      3.11451000      1.19851100
C       3.16079000      2.57137400     -0.02379000
H       2.93852700     -3.44988100     -1.09082300
H       1.26150700     -4.53373800      0.43017100
H      -0.90220800     -4.46500900      1.49226000
H      -3.20490900     -3.50032100      1.19718800
H       3.94463300      1.09930600     -2.17266500
H       3.64745600     -1.38947800     -2.30581300
H      -4.48641100     -2.10498900     -0.27772900
H      -4.74116900     -0.01534000     -1.62913400
H      -3.96930700      2.24594800     -2.12861900
H      -2.54488900      4.20019400     -1.50626500
H      -0.81180200      3.91884100      0.26515600
H      -0.37271200      1.69842700      1.21343200
H       0.90652200      0.56109300      2.43628000
H       1.85010400      2.76808000      3.10423800
H       3.17693100      4.10182800      1.48696500
H       3.80918000      3.11142600     -0.71184300
          42
 Point   84
C       2.14738000     -1.44080300     -0.74186300
C       2.14512900     -2.87107100     -0.62997700
C       1.21224400     -3.46868600      0.16357600
C       0.06892200     -2.71348400      0.60621500
C      -0.02133400     -1.31221300      0.39504900
C       1.24275900     -0.68258900      0.03084600
C      -1.05396900     -3.46305500      1.09105400
C      -2.30132300     -2.93482300      0.95601600
C      -2.44822400     -1.63533800      0.36684600
C      -1.35522900     -0.74121300      0.28464100
C       1.75818700      0.60963900      0.45100400
C       2.70890100      1.27794700     -0.36276900
C       3.30290100      0.57258700     -1.47490700
C       3.10900400     -0.76914100     -1.58387400
C      -3.71446300     -1.34438800     -0.26706600
C      -3.88049200     -0.20464400     -0.98370200
C      -2.88706000      0.83828600     -0.88663700
C      -1.71521500      0.62484000     -0.10794600
C      -3.15632200      2.11435200     -1.45227900
C      -2.37389600      3.20474800     -1.12728500
C      -1.34057600      3.04822000     -0.17658200
C      -1.04268500      1.79501600      0.32395600
C       1.51028900      1.12828600      1.75313000
C       2.03800500      2.34574800      2.13850000
C       2.83170700      3.09865600      1.23905200
C       3.17292000      2.56824100      0.01175200
H       2.92538500     -3.44019400     -1.13095900
H       1.25693200     -4.53161800      0.39410800
H      -0.89007200     -4.46073400      1.49308900
H      -3.19459200     -3.48841500      1.24027900
H       3.95297100      1.11893700     -2.15453100
H       3.64386000     -1.36634400     -2.32083200
H      -4.49816000     -2.09981700     -0.21302900
H      -4.77299000     -0.02351300     -1.58010800
H      -4.00577600      2.22282900     -2.12524800
H      -2.56546600      4.18311400     -1.56235500
H      -0.79021500      3.92211300      0.17031100
H      -0.32957000      1.71932500      1.13655500
H       0.90428200      0.53878500      2.44418900
H       1.85407500      2.73550600      3.13836000
H       3.19012100      4.08156000      1.53948200
H       3.82451500      3.11399600     -0.66876100
          42
 Point   85
C       2.14594000     -1.43237200     -0.75520200
C       2.13888800     -2.86364900     -0.65701000
C       1.20905500     -3.46475500      0.13749800
C       0.07076600     -2.71024900      0.59400500
C      -0.02060400     -1.30839000      0.38720300
C       1.24455500     -0.67932400      0.02601200
C      -1.04630100     -3.45862000      1.09299000
C      -2.29371100     -2.92631200      0.97912400
C      -2.44707000     -1.62801300      0.38851100
C      -1.35457400     -0.73575800      0.28374800
C       1.76438100      0.60518200      0.46225000
C       2.71879700      1.27888200     -0.34237300
C       3.31083600      0.58450200     -1.46217100
C       3.11046900     -0.75474100     -1.58866400
C      -3.72374500     -1.34061300     -0.22490500
C      -3.90118500     -0.20655600     -0.94719300
C      -2.90326100      0.83359400     -0.88001500
C      -1.71544800      0.62602900     -0.12408300
C      -3.18246500      2.10204400     -1.45781000
C      -2.38950000      3.19447100     -1.16963900
C      -1.33023300      3.04669000     -0.24725700
C      -1.02328900      1.79988100      0.26348300
C       1.51023100      1.11255700      1.76822800
C       2.03975900      2.32469800      2.16657200
C       2.84015400      3.08334000      1.27751800
C       3.18502500      2.56408700      0.04673800
H       2.91418700     -3.43090400     -1.16744200
H       1.25222100     -4.52950200      0.35967000
H      -0.87880800     -4.45736900      1.49082600
H      -3.18350700     -3.47673100      1.27947800
H       3.96417300      1.13609600     -2.13433900
H       3.64292000     -1.34490800     -2.33289600
H      -4.50729900     -2.09416300     -0.15076900
H      -4.80456700     -0.02828300     -1.52768100
H      -4.04798500      2.20326500     -2.11103300
H      -2.59019100      4.16722300     -1.61283300
H      -0.76501100      3.92244300      0.06903500
H      -0.27935900      1.73741000      1.04756500
H       0.89739100      0.51957800      2.44989000
H       1.85179500      2.70670400      3.16865500
H       3.19994100      4.06228100      1.58883600
H       3.84049000      3.11469900     -0.62606200
          42
 Point   86
C       2.14553900     -1.42448000     -0.76815300
C       2.13337300     -2.85677000     -0.68371400
C       1.20602800     -3.46115200      0.11124100
C       0.07273900     -2.70707900      0.58118100
C      -0.01964200     -1.30466000      0.37838600
C       1.24684900     -0.67636000      0.02072900
C      -1.03854600     -3.45407700      1.09453500
C      -2.28599500     -2.91760500      1.00198700
C      -2.44583500     -1.62052900      0.40988200
C      -1.35368700     -0.73035800      0.28176100
C       1.77077500      0.60056800      0.47301100
C       2.72971600      1.27932000     -0.32178300
C       3.32082600      0.59551800     -1.44844600
C       3.11388400     -0.74123800     -1.59230600
C      -3.73354800     -1.33628300     -0.18163600
C      -3.92292200     -0.20776300     -0.90926300
C      -2.92005300      0.82935700     -0.87314700
C      -1.71562800      0.62716800     -0.14129800
C      -3.20963400      2.09049600     -1.46235100
C      -2.40640500      3.18479700     -1.21068700
C      -1.32075800      3.04509500     -0.31765100
C      -1.00405600      1.80437200      0.20206200
C       1.50908500      1.09732200      1.78232600
C       2.03987900      2.30440600      2.19362600
C       2.84794600      3.06834300      1.31549000
C       3.19783000      2.55959800      0.08187000
H       2.90380600     -3.42232700     -1.20334100
H       1.24727900     -4.52778000      0.32488800
H      -0.86748700     -4.45384300      1.48831600
H      -3.17231700     -3.46474100      1.31880500
H       3.97820400      1.15211200     -2.11261600
H       3.64453500     -1.32460900     -2.34320200
H      -4.51721200     -2.08773500     -0.08641300
H      -4.83799600     -0.03199500     -1.47248900
H      -4.09136300      2.18476100     -2.09530000
H      -2.61668500      4.15222800     -1.66115900
H      -0.74106200      3.92248800     -0.03163100
H      -0.22937700      1.75430000      0.95697700
H       0.88882100      0.50109300      2.45426100
H       1.84684100      2.67905900      3.19760900
H       3.20888900      4.04341900      1.63774900
H       3.85808600      3.11469600     -0.58262700
          42
 Point   87
C       2.14581900     -1.41677800     -0.78088400
C       2.12803700     -2.84988400     -0.71045300
C       1.20273800     -3.45761000      0.08436100
C       0.07468900     -2.70401000      0.56768900
C      -0.01842400     -1.30107000      0.36883100
C       1.24937900     -0.67349900      0.01484800
C      -1.03066800     -3.44929900      1.09556300
C      -2.27750900     -2.90831300      1.02473100
C      -2.44386500     -1.61241500      0.43133000
C      -1.35238300     -0.72498200      0.27925200
C       1.77634900      0.59607100      0.48264900
C       2.74149200      1.27887700     -0.30097400
C       3.33275600      0.60535500     -1.43352400
C       3.11883400     -0.72844200     -1.59490900
C      -3.74224700     -1.33021800     -0.13704300
C      -3.94337200     -0.20720100     -0.86962700
C      -2.93587100      0.82586900     -0.86552000
C      -1.71542800      0.62800000     -0.15890400
C      -3.23580200      2.07971800     -1.46538500
C      -2.42365200      3.17469700     -1.24954300
C      -1.31303500      3.04150000     -0.38708200
C      -0.98583000      1.80658700      0.13989500
C       1.50367300      1.08409200      1.79362600
C       2.03605900      2.28555100      2.21832000
C       2.85495600      3.05298300      1.35276800
C       3.21180300      2.55377900      0.11743300
H       2.89350700     -3.41364500     -1.23923000
H       1.24157700     -4.52613600      0.28894700
H      -0.85630700     -4.45011100      1.48520600
H      -3.15990800     -3.45186200      1.35843100
H       3.99521800      1.16646500     -2.08886100
H       3.64813800     -1.30502100     -2.35196200
H      -4.52593600     -2.07868500     -0.01993700
H      -4.86997900     -0.03306900     -1.41441800
H      -4.13263600      2.16797500     -2.07769000
H      -2.64352500      4.13702600     -1.70625300
H      -0.72043400      3.91959600     -0.13133600
H      -0.18090600      1.76651700      0.86261100
H       0.87306800      0.48637200      2.45445600
H       1.83574100      2.65374800      3.22333100
H       3.21773000      4.02360600      1.68642100
H       3.87882900      3.11222800     -0.53750100
          42
 Point   88
C       2.14738200     -1.41009300     -0.79197400
C       2.12409900     -2.84371500     -0.73480700
C       1.19981600     -3.45455400      0.05879100
C       0.07644800     -2.70148600      0.55360300
C      -0.01698900     -1.29801100      0.35881000
C       1.25246200     -0.67133700      0.00939200
C      -1.02327100     -3.44538600      1.09424800
C      -2.26870600     -2.89968100      1.04431700
C      -2.44096700     -1.60439100      0.45075000
C      -1.35070900     -0.71977800      0.27596200
C       1.78165500      0.59121700      0.49198300
C       2.75398500      1.27698100     -0.27987200
C       3.34660100      0.61298400     -1.41705100
C       3.12569300     -0.71746900     -1.59545900
C      -3.74908900     -1.32361400     -0.09428900
C      -3.96267400     -0.20419600     -0.82824900
C      -2.95202100      0.82453600     -0.85372900
C      -1.71496800      0.62877800     -0.17592300
C      -3.26408600      2.07206900     -1.46061600
C      -2.44244900      3.16605800     -1.28325100
C      -1.30386100      3.03612400     -0.45853700
C      -0.96541800      1.80612100      0.07274000
C       1.49441200      1.07358100      1.80252600
C       2.02737400      2.26991900      2.23955300
C       2.85914700      3.03878800      1.38733400
C       3.22546200      2.54696500      0.15205500
H       2.88560300     -3.40566700     -1.27097400
H       1.23612000     -4.52467100      0.25520600
H      -0.84629300     -4.44754900      1.47918600
H      -3.14709500     -3.43985500      1.39328900
H       4.01468400      1.17782700     -2.06335200
H       3.65418300     -1.28771900     -2.35780600
H      -4.53142200     -2.06992000      0.04181100
H      -4.89995400     -0.03051200     -1.35427000
H      -4.17780200      2.15639900     -2.04777300
H      -2.67327600      4.12420700     -1.74312600
H      -0.69603000      3.91282400     -0.23709100
H      -0.12568500      1.77357500      0.75361200
H       0.85133400      0.47646900      2.45136300
H       1.81707600      2.63407000      3.24399500
H       3.22278100      4.00549100      1.73112300
H       3.90005400      3.10755300     -0.49314700
          42
 Point   89
C       2.15017900     -1.40418100     -0.80254300
C       2.12109400     -2.83833000     -0.75871600
C       1.19718000     -3.45208500      0.03303300
C       0.07841000     -2.69927100      0.53879400
C      -0.01523800     -1.29528600      0.34769900
C       1.25610500     -0.66964700      0.00343100
C      -1.01577500     -3.44162100      1.09226700
C      -2.25978000     -2.89107200      1.06331800
C      -2.43791400     -1.59636600      0.46966600
C      -1.34870300     -0.71486000      0.27139900
C       1.78687700      0.58627600      0.50054900
C       2.76752300      1.27445400     -0.25863100
C       3.36285600      0.61937800     -1.39935600
C       3.13483100     -0.70773200     -1.59461200
C      -3.75639100     -1.31625400     -0.05030000
C      -3.98296000     -0.20009400     -0.78500700
C      -2.96853900      0.82385900     -0.84149900
C      -1.71430500      0.62932800     -0.19405900
C      -3.29297000      2.06562400     -1.45430500
C      -2.46179400      3.15828700     -1.31513800
C      -1.29517700      3.03062000     -0.52910800
C      -0.94535700      1.80506100      0.00520300
C       1.48320800      1.06411000      1.80975900
C       2.01575700      2.25586800      2.25890600
C       2.86188600      3.02538400      1.42079900
C       3.23972800      2.53977700      0.18665000
H       2.87874800     -3.39862500     -1.30202200
H       1.23049000     -4.52387900      0.22100800
H      -0.83625100     -4.44511600      1.47257900
H      -3.13417900     -3.42774700      1.42790800
H       4.03761100      1.18759700     -2.03588000
H       3.66326400     -1.27196000     -2.36150900
H      -4.53775900     -2.05999700      0.10599800
H      -4.93190300     -0.02618100     -1.29040100
H      -4.22375400      2.14663200     -2.01554300
H      -2.70369400      4.11265100     -1.77729500
H      -0.67258400      3.90564100     -0.34136100
H      -0.07246700      1.77889200      0.64474100
H       0.82696600      0.46792400      2.44621300
H       1.79374400      2.61677900      3.26212900
H       3.22602500      3.98834900      1.77469100
H       3.92330300      3.10182200     -0.44794200
          42
 Point   90
C       2.15377600     -1.39857400     -0.81285600
C       2.11850300     -2.83304300     -0.78273400
C       1.19434100     -3.44986500      0.00632500
C       0.08032300     -2.69739000      0.52299600
C      -0.01329300     -1.29292000      0.33559800
C       1.25977100     -0.66807200     -0.00344300
C      -1.00821000     -3.43790700      1.08945800
C      -2.25016800     -2.88222600      1.08207500
C      -2.43424900     -1.58797300      0.48873500
C      -1.34640900     -0.71032000      0.26637000
C       1.79050900      0.58197400      0.50738200
C       2.78161800      1.27115700     -0.23737800
C       3.38135600      0.62429200     -1.38022700
C       3.14591300     -0.69900400     -1.59241100
C      -3.76258500     -1.30696000     -0.00454000
C      -4.00158400     -0.19392900     -0.73968100
C      -2.98350200      0.82395100     -0.82858400
C      -1.71342000      0.62927200     -0.21229200
C      -3.31934600      2.06023600     -1.44671600
C      -2.47970800      3.15009600     -1.34479200
C      -1.28818200      3.02286500     -0.59748300
C      -0.92756900      1.80127500     -0.06131600
C       1.46693000      1.05754700      1.81313100
C       1.99946900      2.24409500      2.27505700
C       2.86336100      3.01207700      1.45319200
C       3.25495000      2.53132600      0.22154900
H       2.87235500     -3.39153700     -1.33310400
H       1.22412200     -4.52338100      0.18508100
H      -0.82636200     -4.44281100      1.46493500
H      -3.12005200     -3.41515900      1.46279800
H       4.06428100      1.19513300     -2.00576200
H       3.67514000     -1.25741700     -2.36301000
H      -4.54312600     -2.04692700      0.17323900
H      -4.96194700     -0.01855800     -1.22285100
H      -4.26545600      2.13927000     -1.98199300
H      -2.73155400      4.10101600     -1.80864900
H      -0.65308000      3.89527300     -0.44287700
H      -0.02582200      1.77808800      0.53628200
H       0.79492200      0.46408000      2.43565900
H       1.76332000      2.60283000      3.27596100
H       3.22874000      3.97065400      1.81775900
H       3.94990500      3.09330300     -0.40079200
          42
 Point   91
C       2.15834700     -1.39396100     -0.82131300
C       2.11737000     -2.82846700     -0.80396800
C       1.19200000     -3.44814500     -0.01861500
C       0.08192700     -2.69616700      0.50695200
C      -0.01134100     -1.29121300      0.32338700
C       1.26360900     -0.66709800     -0.00972100
C      -1.00142400     -3.43530100      1.08444500
C      -2.24070300     -2.87461800      1.09734400
C      -2.43000900     -1.58020300      0.50549400
C      -1.34405600     -0.70633800      0.26093400
C       1.79332100      0.57788800      0.51369300
C       2.79560200      1.26682300     -0.21616000
C       3.40077100      0.62713000     -1.35991100
C       3.15827100     -0.69208900     -1.58821800
C      -3.76675100     -1.29770100      0.03816600
C      -4.01810700     -0.18559900     -0.69374300
C      -2.99802600      0.82630600     -0.81144600
C      -1.71249200      0.62894500     -0.22925400
C      -3.34600900      2.05855800     -1.43113400
C      -2.49775300      3.14375600     -1.36817600
C      -1.27966400      3.01292700     -0.66678700
C      -0.90837300      1.79393600     -0.13203400
C       1.44723500      1.05434600      1.81346800
C       1.97917000      2.23606400      2.28720400
C       2.86212300      3.00044900      1.48248500
C       3.26913000      2.52237200      0.25504500
H       2.86868200     -3.38517400     -1.35945700
H       1.21846600     -4.52302000      0.15209000
H      -0.81791900     -4.44183900      1.45470500
H      -3.10614500     -3.40432800      1.49205900
H       4.09185300      1.19978700     -1.97461900
H       3.68869000     -1.24534000     -2.36171400
H      -4.54512900     -2.03515400      0.23336200
H      -4.98822600     -0.00775800     -1.15542600
H      -4.30808300      2.13822400     -1.93655300
H      -2.76008900      4.09262100     -1.83029900
H      -0.63022200      3.88018400     -0.54931700
H       0.02576600      1.76945300      0.41256500
H       0.75827400      0.46555000      2.42117400
H       1.72726500      2.59486300      3.28416100
H       3.22792100      3.95520600      1.85640300
H       3.97556800      3.08314500     -0.35510200
          42
 Point   92
C       2.16405600     -1.39017000     -0.82905200
C       2.11725400     -2.82473300     -0.82450600
C       1.19006300     -3.44717900     -0.04355800
C       0.08375100     -2.69550200      0.49029700
C      -0.00909000     -1.29008400      0.31025600
C       1.26786100     -0.66662900     -0.01635800
C      -0.99462700     -3.43320100      1.07854200
C      -2.23125100     -2.86744800      1.11157800
C      -2.42566200     -1.57276900      0.52145100
C      -1.34140300     -0.70297000      0.25422300
C       1.79565600      0.57395000      0.51906300
C       2.81019300      1.26200200     -0.19503900
C       3.42221800      0.62872500     -1.33849200
C       3.17267700     -0.68648400     -1.58257000
C      -3.77128700     -1.28769800      0.08181800
C      -4.03535900     -0.17595300     -0.64590500
C      -3.01255600      0.82936800     -0.79385200
C      -1.71124300      0.62810500     -0.24725700
C      -3.37254200      2.05840100     -1.41369400
C      -2.51526500      3.13841700     -1.38943400
C      -1.27105300      3.00277000     -0.73448800
C      -0.88963300      1.78579400     -0.20228600
C       1.42537200      1.05260200      1.81184200
C       1.95552600      2.23025400      2.29689700
C       2.85907700      2.99006600      1.51010700
C       3.28360300      2.51320800      0.28814000
H       2.86619900     -3.37971500     -1.38489300
H       1.21280200     -4.52351400      0.11870500
H      -0.80956100     -4.44140100      1.44355100
H      -3.09231400     -3.39386900      1.52044000
H       4.12257500      1.20277100     -1.94158900
H       3.70515300     -1.23494900     -2.35810600
H      -4.54802300     -2.02205800      0.29567300
H      -5.01627200      0.00539200     -1.08385600
H      -4.35076100      2.13963300     -1.88832600
H      -2.78778300      4.08568600     -1.84902600
H      -0.60777600      3.86457700     -0.65314200
H       0.07374100      1.75891100      0.29164200
H       0.71886200      0.46884300      2.40445900
H       1.68586900      2.59020200      3.28902500
H       3.22498000      3.94120400      1.89325700
H       4.00316000      3.07185200     -0.30883600
          42
 Point   93
C       2.17041800     -1.38664900     -0.83626700
C       2.11771000     -2.82106500     -0.84483500
C       1.18801700     -3.44649900     -0.06930500
C       0.08542200     -2.69530100      0.47264400
C      -0.00683900     -1.28943200      0.29621200
C       1.27180300     -0.66615900     -0.02382800
C      -0.98798700     -3.43146100      1.07149300
C      -2.22142300     -2.86053100      1.12512800
C      -2.42097200     -1.56534300      0.53736900
C      -1.33874600     -0.70029700      0.24711800
C       1.79594300      0.57116800      0.52251000
C       2.82446100      1.25688300     -0.17418000
C       3.44528500      0.62894000     -1.31563400
C       3.18883700     -0.68192300     -1.57527000
C      -3.77473400     -1.27587800      0.12707200
C      -4.05062700     -0.16422500     -0.59611700
C      -3.02519200      0.83309800     -0.77586200
C      -1.71008100      0.62639600     -0.26517800
C      -3.39544400      2.05943100     -1.39546300
C      -2.53005800      3.13270800     -1.40872700
C      -1.26397900      2.99038300     -0.79915000
C      -0.87398200      1.77479000     -0.27023800
C       1.39981200      1.05364200      1.80624900
C       1.92841100      2.22679900      2.30315600
C       2.85452100      2.98027200      1.53630300
C       3.29808400      2.50332000      0.32118400
H       2.86454900     -3.37411500     -1.40992200
H       1.20660000     -4.52432000      0.08366000
H      -0.80157500     -4.44146100      1.43087300
H      -3.07760200     -3.38361400      1.54841600
H       4.15645800      1.20345100     -1.90574700
H       3.72458200     -1.22604800     -2.35164200
H      -4.55005100     -2.00579300      0.36104600
H      -5.04185100      0.02210900     -1.00849200
H      -4.38753500      2.14382000     -1.83966600
H      -2.81087900      4.07880000     -1.86564400
H      -0.58949300      3.84586700     -0.75275900
H       0.11227700      1.74165500      0.17483900
H       0.67468200      0.47613800      2.38253100
H       1.63947800      2.58873700      3.28926500
H       3.22094200      3.92729800      1.92914500
H       4.03258400      3.05836900     -0.26098800
          42
 Point   94
C       2.17718100     -1.38382800     -0.84144300
C       2.11949300     -2.81787800     -0.86195500
C       1.18663100     -3.44615000     -0.09262200
C       0.08672400     -2.69572000      0.45539400
C      -0.00480500     -1.28943600      0.28264100
C       1.27545300     -0.66602600     -0.03037300
C      -0.98240300     -3.43087600      1.06276100
C      -2.21233600     -2.85527200      1.13515700
C      -2.41621900     -1.55901800      0.55080000
C      -1.33637700     -0.69849000      0.23995300
C       1.79495800      0.56924500      0.52536700
C       2.83734000      1.25163400     -0.15378500
C       3.46736500      0.62797100     -1.29235300
C       3.20498500     -0.67857400     -1.56635000
C      -3.77631300     -1.26477600      0.16808600
C      -4.06311900     -0.15092700     -0.54710600
C      -3.03665800      0.83895700     -0.75405300
C      -1.70900200      0.62418000     -0.28155900
C      -3.41679800      2.06437200     -1.36984100
C      -2.54351700      3.12908000     -1.42111700
C      -1.25528000      2.97542700     -0.86404400
C      -0.85746800      1.75936100     -0.34220800
C       1.37240400      1.05774500      1.79778000
C       1.89957600      2.22649600      2.30585600
C       2.84796400      2.97223600      1.55961100
C       3.31051700      2.49378100      0.35244600
H       2.86557400     -3.36903300     -1.42982200
H       1.20172100     -4.52506400      0.05250400
H      -0.79522100     -4.44274000      1.41647400
H      -3.06396300     -3.37579100      1.57034300
H       4.18828200      1.20248300     -1.87029400
H       3.74399500     -1.21900600     -2.34306200
H      -4.54915900     -1.99191400      0.41717600
H      -5.06239000      0.04102000     -0.93576300
H      -4.42223500      2.15474400     -1.78070500
H      -2.83237100      4.07580300     -1.87165400
H      -0.56845200      3.82181400     -0.85643800
H       0.15404900      1.71341000      0.04078100
H       0.62876100      0.48785000      2.35713600
H       1.59175000      2.59171300      3.28478200
H       3.21448100      3.91558000      1.96100200
H       4.05885800      3.04467200     -0.21539300
          42
 Point   95
C       2.18470600     -1.38164200     -0.84571400
C       2.12228800     -2.81536600     -0.87792700
C       1.18581900     -3.44655700     -0.11542300
C       0.08822400     -2.69689900      0.43793600
C      -0.00260400     -1.29023700      0.26857100
C       1.27916700     -0.66629700     -0.03699500
C      -0.97698400     -3.43113000      1.05312700
C      -2.20354400     -2.85091000      1.14376200
C      -2.41155300     -1.55344200      0.56310900
C      -1.33385500     -0.69766200      0.23162000
C       1.79303800      0.56776800      0.52725900
C       2.84980300      1.24645100     -0.13396700
C       3.49021300      0.62632000     -1.26857700
C       3.22234400     -0.67615600     -1.55620900
C      -3.77821700     -1.25314200      0.20937000
C      -4.07597400     -0.13625400     -0.49652300
C      -3.04770400      0.84548300     -0.73184100
C      -1.70741500      0.62109500     -0.29896200
C      -3.43720800      2.07108700     -1.34203200
C      -2.55523200      3.12648200     -1.43121000
C      -1.24547200      2.95996000     -0.92717800
C      -0.84096200      1.74271400     -0.41351300
C       1.34322700      1.06329200      1.78768500
C       1.86805500      2.22835600      2.30629400
C       2.83968300      2.96562600      1.58107500
C       3.32246400      2.48452100      0.38277200
H       2.86791400     -3.36456000     -1.44830100
H       1.19723900     -4.52665200      0.02149100
H      -0.78915200     -4.44493200      1.40104400
H      -3.05076800     -3.36890600      1.59067700
H       4.22172900      1.20048900     -1.83377600
H       3.76558000     -1.21329100     -2.33232100
H      -4.54920700     -1.97684300      0.47454300
H      -5.08420100      0.06268300     -0.85906200
H      -4.45621700      2.16879000     -1.71829800
H      -2.85147900      4.07442300     -1.87445500
H      -0.54654600      3.79686300     -0.95725400
H       0.19218200      1.68316400     -0.08913800
H       0.58073900      0.50130200      2.33009100
H       1.53982100      2.59780800      3.27728300
H       3.20618400      3.90539700      1.99091800
H       4.08592300      3.03043300     -0.17002000
          42
 Point   96
C       2.19251100     -1.37955300     -0.84929500
C       2.12575700     -2.81280200     -0.89320400
C       1.18513400     -3.44721200     -0.13853500
C       0.08952900     -2.69865600      0.41976200
C      -0.00059100     -1.29164300      0.25388100
C       1.28215400     -0.66640500     -0.04431700
C      -0.97197200     -3.43203100      1.04222300
C      -2.19479900     -2.84726400      1.15128000
C      -2.40685400     -1.54823900      0.57520100
C      -1.33156200     -0.69780000      0.22302300
C       1.78866800      0.56784400      0.52705700
C       2.86059100      1.24177800     -0.11490600
C       3.51326000      0.62397900     -1.24379000
C       3.24067200     -0.67439600     -1.54447000
C      -3.77910000     -1.23991300      0.25191200
C      -4.08647100     -0.11953000     -0.44418800
C      -3.05643200      0.85257400     -0.70943100
C      -1.70593300      0.61693400     -0.31619700
C      -3.45293600      2.07908300     -1.31377500
C      -2.56287800      3.12349700     -1.43982400
C      -1.23643100      2.94221300     -0.98720500
C      -0.82750900      1.72307800     -0.48201800
C       1.31204500      1.07081000      1.77417400
C       1.83459300      2.23193000      2.30375600
C       2.82965000      2.95981000      1.60111000
C       3.33302700      2.47534900      0.41265300
H       2.87143400     -3.35977100     -1.46568800
H       1.19276300     -4.52847700     -0.01057800
H      -0.78375200     -4.44796600      1.38378600
H      -3.03726600     -3.36292000      1.60981000
H       4.25656500      1.19697900     -1.79492000
H       3.78958700     -1.20881300     -2.31851800
H      -4.54856800     -1.95876600      0.53460800
H      -5.10287600      0.08813900     -0.77858100
H      -4.48295700      2.18593800     -1.65588400
H      -2.86407600      4.07315500     -1.87593400
H      -0.52806200      3.76880000     -1.05355300
H       0.21992400      1.64620100     -0.21251300
H       0.53101000      0.51722200      2.29877700
H       1.48564700      2.60592300      3.26582800
H       3.19627600      3.89560800      2.01988800
H       4.11247100      3.01525500     -0.12367000
          42
 Point   97
C       2.20010100     -1.37773000     -0.85104800
C       2.13029100     -2.81041000     -0.90523500
C       1.18525400     -3.44800100     -0.15886200
C       0.09051700     -2.70095800      0.40251000
C       0.00104300     -1.29367000      0.24010300
C       1.28434800     -0.66651900     -0.05078600
C      -0.96809500     -3.43396700      1.03030200
C      -2.18725400     -2.84540900      1.15565700
C      -2.40256600     -1.54435600      0.58506400
C      -1.32976500     -0.69892700      0.21487300
C       1.78244900      0.56931800      0.52581700
C       2.86869000      1.23804300     -0.09703000
C       3.53354200      0.62176000     -1.21959800
C       3.25776300     -0.67293200     -1.53178000
C      -3.77849300     -1.22773200      0.28979000
C      -4.09369000     -0.10173700     -0.39356000
C      -3.06309200      0.86160200     -0.68368300
C      -1.70445000      0.61223300     -0.33145900
C      -3.46501300      2.09079400     -1.27939600
C      -2.56707100      3.12227100     -1.44212500
C      -1.22544500      2.92131700     -1.04736300
C      -0.81395300      1.69853800     -0.55350700
C       1.28033700      1.08034500      1.75849600
C       1.80113200      2.23733700      2.29880900
C       2.81796700      2.95545900      1.61886800
C       3.34054500      2.46735200      0.44045400
H       2.87725600     -3.35522200     -1.47809900
H       1.19015800     -4.53007500     -0.03819400
H      -0.77990000     -4.45191700      1.36587300
H      -3.02556000     -3.35961500      1.62319600
H       4.28663800      1.19369800     -1.75807800
H       3.81199500     -1.20511100     -2.30357200
H      -4.54593600     -1.94356500      0.58454500
H      -5.11567200      0.11484000     -0.70267100
H      -4.50442300      2.20965200     -1.58551400
H      -2.87179500      4.07551900     -1.86789500
H      -0.50750300      3.73477600     -1.15372400
H       0.24675100      1.59643600     -0.35109700
H       0.48227600      0.53540800      2.26549600
H       1.43363500      2.61581800      3.25182600
H       3.18466400      3.88745400      2.04583200
H       4.13401900      3.00139800     -0.08026300
          42
 Point   98
C       2.20804000     -1.37624100     -0.85208000
C       2.13577800     -2.80843100     -0.91600000
C       1.18608600     -3.44945900     -0.17846100
C       0.09165700     -2.70417900      0.38526100
C       0.00270300     -1.29666100      0.22615000
C       1.28624100     -0.66693800     -0.05732300
C      -0.96452500     -3.43702300      1.01738200
C      -2.18022200     -2.84478000      1.15848200
C      -2.39853600     -1.54143100      0.59395900
C      -1.32791700     -0.70124100      0.20597400
C       1.77502200      0.57124800      0.52358200
C       2.87535500      1.23499100     -0.08027100
C       3.55330800      0.61970400     -1.19567700
C       3.27521400     -0.67176000     -1.51835600
C      -3.77821100     -1.21493400      0.32796900
C      -4.10087500     -0.08238600     -0.34126300
C      -3.06882500      0.87122200     -0.65756300
C      -1.70223400      0.60651000     -0.34733200
C      -3.47508500      2.10419000     -1.24314400
C      -2.56806900      3.12157300     -1.44341300
C      -1.21229400      2.89955900     -1.10624600
C      -0.80007900      1.67287800     -0.62323900
C       1.24731400      1.09068000      1.74180700
C       1.76552900      2.24417700      2.29224100
C       2.80434300      2.95242100      1.63499000
C       3.34649800      2.46024400      0.46692700
H       2.88449700     -3.35090100     -1.48885900
H       1.18836600     -4.53241700     -0.06542600
H      -0.77653400     -4.45717800      1.34652800
H      -3.01455600     -3.35773400      1.63458100
H       4.31674800      1.19042100     -1.72113400
H       3.83589100     -1.20204200     -2.28686500
H      -4.54437600     -1.92683300      0.63578500
H      -5.12918200      0.14484500     -0.62246100
H      -4.52409000      2.23674700     -1.51163700
H      -2.87519500      4.07874300     -1.85872600
H      -0.48471800      3.69939500     -1.25160700
H       0.27001700      1.54673300     -0.48061100
H       0.43218600      0.55437200      2.23133600
H       1.37848700      2.62770500      3.23575200
H       3.17098500      3.88064800      2.07020500
H       4.15465800      2.98806900     -0.03780300
          42
 Point   99
C       2.21598700     -1.37474700     -0.85275300
C       2.14194900     -2.80639800     -0.92609400
C       1.18722600     -3.45118100     -0.19833600
C       0.09259800     -2.70808200      0.36724300
C       0.00412000     -1.30034000      0.21170200
C       1.28724700     -0.66720200     -0.06473400
C      -0.96153700     -3.44096400      1.00278300
C      -2.17352900     -2.84510600      1.15994900
C      -2.39457800     -1.53887200      0.60298600
C      -1.32625800     -0.70445500      0.19728300
C       1.76541500      0.57433100      0.51916700
C       2.87967900      1.23283600     -0.06468700
C       3.57233900      0.61765900     -1.17126500
C       3.29303100     -0.67082900     -1.50373700
C      -3.77689600     -1.20028600      0.36805700
C      -4.10521600     -0.06083300     -0.28678000
C      -3.07166400      0.88131000     -0.63137500
C      -1.69991400      0.60002800     -0.36232500
C      -3.47941500      2.11834400     -1.20772600
C      -2.56400700      3.11984600     -1.44545400
C      -1.19966600      2.87581900     -1.16228200
C      -0.78944300      1.64536500     -0.68798000
C       1.21335000      1.10164600      1.72259000
C       1.72826200      2.25182400      2.28326900
C       2.78815500      2.95015900      1.64974200
C       3.34991600      2.45378900      0.49271500
H       2.89311400     -3.34626400     -1.49832000
H       1.18702700     -4.53499900     -0.09351900
H      -0.77417900     -4.46369600      1.32445200
H      -3.00374100     -3.35725700      1.64407500
H       4.34687400      1.18663700     -1.68246500
H       3.86168800     -1.19975400     -2.26738000
H      -4.54226500     -1.90656700      0.69082000
H      -5.13876000      0.17898300     -0.53777700
H      -4.53505300      2.26615800     -1.43944900
H      -2.87065500      4.08088500     -1.85200800
H      -0.46535100      3.66149000     -1.34472000
H       0.28237700      1.49461400     -0.59556300
H       0.38217600      0.57374700      2.19412800
H       1.32167000      2.64042600      3.21648600
H       3.15427300      3.87445200      2.09367400
H       4.17287900      2.97496100      0.00517200
          42
 Point  100
C       2.22357800     -1.37336100     -0.85219200
C       2.14884300     -2.80447500     -0.93374500
C       1.18904200     -3.45297300     -0.21607500
C       0.09326500     -2.71239200      0.34988400
C       0.00521700     -1.30446900      0.19812500
C       1.28757500     -0.66749300     -0.07155000
C      -0.95963700     -3.44570100      0.98716700
C      -2.16810000     -2.84688400      1.15869900
C      -2.39102200     -1.53724300      0.61049600
C      -1.32491100     -0.70822200      0.18955600
C       1.75459500      0.57808900      0.51394300
C       2.88143500      1.23168300     -0.05033900
C       3.58839800      0.61637500     -1.14776700
C       3.30933300     -0.66969400     -1.48868900
C      -3.77416500     -1.18625700      0.40459800
C      -4.10595600     -0.03836600     -0.23369600
C      -3.07191600      0.89322800     -0.60230700
C      -1.69746600      0.59370100     -0.37467500
C      -3.47926100      2.13534600     -1.16828000
C      -2.55632900      3.11885800     -1.44439900
C      -1.18638900      2.84908800     -1.21942800
C      -0.77989300      1.61463300     -0.75292300
C       1.18010900      1.11275000      1.70264100
C       1.69145800      2.25987400      2.27304000
C       2.76988900      2.94908200      1.66261700
C       3.34984900      2.44882500      0.51650300
H       2.90328400     -3.34187500     -1.50403000
H       1.18735500     -4.53738200     -0.11796700
H      -0.77328100     -4.47084100      1.30172900
H      -2.99491700     -3.35902800      1.64856500
H       4.37172200      1.18419600     -1.64634700
H       3.88529000     -1.19739100     -2.24763300
H      -4.53860000     -1.88851900      0.73753200
H      -5.14212600      0.21372300     -0.45760600
H      -4.53921800      2.30078600     -1.36189200
H      -2.86094500      4.08466100     -1.84118600
H      -0.44643500      3.61803600     -1.44260800
H       0.29135000      1.43461700     -0.71544300
H       0.33559400      0.59211100      2.15746600
H       1.26803100      2.65266800      3.19658600
H       3.13500600      3.86983600      2.11447600
H       4.18529100      2.96415600      0.04498300
          42
 Point  101
C       2.23141200     -1.37229800     -0.85127000
C       2.15650400     -2.80295100     -0.94060000
C       1.19141100     -3.45542400     -0.23355400
C       0.09396200     -2.71766500      0.33225000
C       0.00638400     -1.30954200      0.18455500
C       1.28774300     -0.66830400     -0.07835200
C      -0.95823000     -3.45170600      0.96999300
C      -2.16323700     -2.84985400      1.15583700
C      -2.38757500     -1.53623100      0.61768400
C      -1.32332800     -0.71283500      0.18179800
C       1.74311100      0.58163300      0.50830100
C       2.88173100      1.23115600     -0.03704300
C       3.60357300      0.61553700     -1.12481300
C       3.32569100     -0.66858800     -1.47330600
C      -3.77152900     -1.17113200      0.44237000
C      -4.10625300     -0.01415900     -0.17845000
C      -3.07091600      0.90564600     -0.57291700
C      -1.69408200      0.58684900     -0.38672700
C      -3.47671800      2.15308500     -1.12871300
C      -2.54565000      3.11767200     -1.44456700
C      -1.17133800      2.82209600     -1.27518600
C      -0.76989600      1.58400400     -0.81461800
C       1.14605200      1.12364700      1.68241700
C       1.65268900      2.26855300      2.26174000
C       2.74911900      2.94925500      1.67386700
C       3.34749900      2.44510100      0.53875600
H       2.91471800     -3.33767100     -1.50852300
H       1.18834200     -4.54049700     -0.14258100
H      -0.77330400     -4.47970800      1.27631100
H      -2.98691100     -3.36234800      1.65069800
H       4.39599000      1.18222900     -1.61051900
H       3.91004400     -1.19524200     -2.22663500
H      -4.53573400     -1.86814800      0.78698700
H      -5.14557800      0.25204400     -0.37250700
H      -4.54085400      2.33706800     -1.28367600
H      -2.84722900      4.08781100     -1.83318100
H      -0.42574700      3.57418500     -1.53750300
H       0.29903800      1.37778400     -0.82396700
H       0.28826000      0.60994800      2.12066900
H       1.21148800      2.66594500      3.17520800
H       3.11251100      3.86687900      2.13344400
H       4.19537100      2.95488700      0.08322700
          42
 Point  102
C       2.23929000     -1.37149000     -0.85019600
C       2.16462500     -2.80166800     -0.94714500
C       1.19388400     -3.45829700     -0.25167500
C       0.09433400     -2.72365200      0.31357700
C       0.00747200     -1.31526500      0.17068700
C       1.28751500     -0.66940800     -0.08567200
C      -0.95775900     -3.45865300      0.95049000
C      -2.15892700     -2.85357700      1.15143400
C      -2.38395700     -1.53510400      0.62555100
C      -1.32157300     -0.71784400      0.17474700
C       1.73072400      0.58507900      0.50149900
C       2.88028800      1.23102400     -0.02457700
C       3.61788100      0.61476000     -1.10149900
C       3.34213200     -0.66772500     -1.45705700
C      -3.76738100     -1.15380300      0.48284800
C      -4.10305000      0.01205600     -0.12101100
C      -3.06677700      0.91837200     -0.54382100
C      -1.69025600      0.57999600     -0.39726500
C      -3.46876800      2.17045000     -1.09207500
C      -2.53156000      3.11517300     -1.44697000
C      -1.15785000      2.79450300     -1.32742900
C      -0.76268800      1.55348300     -0.87003300
C       1.11177600      1.13401200      1.66077500
C       1.61214600      2.27755100      2.24835000
C       2.72511100      2.95042100      1.68330500
C       3.34218700      2.44227600      0.56000400
H       2.92720500     -3.33354700     -1.51204400
H       1.18950400     -4.54401700     -0.16842400
H      -0.77509000     -4.49011300      1.24679300
H      -2.97958900     -3.36697200      1.65037200
H       4.41957600      1.18018700     -1.57346700
H       3.93598900     -1.19361000     -2.20353500
H      -4.53165900     -1.84373800      0.84158500
H      -5.14396500      0.29387500     -0.28333100
H      -4.53381400      2.37313600     -1.21117700
H      -2.82829200      4.08889500     -1.83025600
H      -0.40958600      3.52984500     -1.62577100
H       0.29990000      1.32300400     -0.91671800
H       0.24183700      0.62665200      2.08227200
H       1.15287100      2.67975400      3.15082000
H       3.08543100      3.86543800      2.15037800
H       4.20186300      2.94678700      0.12105400
          42
 Point  103
C       2.24695600     -1.37092400     -0.84811200
C       2.17301000     -2.80061100     -0.95215800
C       1.19657700     -3.46129600     -0.26864700
C       0.09437500     -2.72990200      0.29509800
C       0.00844100     -1.32124300      0.15753800
C       1.28711600     -0.67079100     -0.09216800
C      -0.95842000     -3.46600600      0.92980400
C      -2.15577600     -2.85808600      1.14471800
C      -2.38045600     -1.53441700      0.63222100
C      -1.31980200     -0.72292200      0.16852800
C       1.71814000      0.58827400      0.49492800
C       2.87722400      1.23139900     -0.01268700
C       3.62993800      0.61458100     -1.07867100
C       3.35731100     -0.66667200     -1.44041200
C      -3.76149700     -1.13676700      0.52082100
C      -4.09613500      0.03891500     -0.06456700
C      -3.06014500      0.93265400     -0.51263100
C      -1.68615700      0.57380300     -0.40554100
C      -3.45735800      2.18982600     -1.05280600
C      -2.51582200      3.11265400     -1.44886500
C      -1.14559400      2.76470400     -1.38132500
C      -0.75706700      1.52171000     -0.92420600
C       1.07911600      1.14324500      1.63980400
C       1.57236200      2.28628700      2.23443200
C       2.69913600      2.95282900      1.69083400
C       3.33394900      2.44090100      0.57944900
H       2.94022900     -3.32980700     -1.51334300
H       1.19139900     -4.54748800     -0.19221900
H      -0.77843900     -4.50066500      1.21640400
H      -2.97414900     -3.37273700      1.64615300
H       4.43897100      1.17940400     -1.53837100
H       3.95978400     -1.19160700     -2.18051500
H      -4.52564900     -1.82091000      0.89015500
H      -5.13628700      0.33582600     -0.19746800
H      -4.52119100      2.41323600     -1.13405100
H      -2.80727400      4.08994300     -1.82725100
H      -0.39648500      3.48118000     -1.71898300
H       0.29770400      1.26555600     -1.00780800
H       0.19998600      0.64034800      2.04666500
H       1.09742000      2.69230500      3.12665800
H       3.05563500      3.86606800      2.16414500
H       4.20340300      2.94118100      0.15579200
          42
 Point  104
C       2.25491000     -1.37083300     -0.84567900
C       2.18185900     -2.80005000     -0.95681600
C       1.19939600     -3.46496700     -0.28592300
C       0.09425200     -2.73700200      0.27604600
C       0.00957400     -1.32798200      0.14455600
C       1.28684700     -0.67288300     -0.09834200
C      -0.95980000     -3.47451400      0.90718300
C      -2.15319000     -2.86344800      1.13652300
C      -2.37683200     -1.53384200      0.63911000
C      -1.31759200     -0.72833600      0.16274800
C       1.70539400      0.59087300      0.48853600
C       2.87307600      1.23212800     -0.00153100
C       3.64130800      0.61462400     -1.05620800
C       3.37261400     -0.66580800     -1.42339800
C      -3.75538500     -1.11846000      0.56052200
C      -4.08848200      0.06721600     -0.00619000
C      -3.05228100      0.94720400     -0.48136600
C      -1.68106600      0.56760700     -0.41302200
C      -3.44412800      2.20885800     -1.01516100
C      -2.49843800      3.10976600     -1.45229400
C      -1.13232200      2.73554900     -1.43295300
C      -0.75072500      1.49082800     -0.97523000
C       1.04618800      1.15174600      1.61916000
C       1.53109500      2.29530800      2.21979500
C       2.67064100      2.95658700      1.69653800
C       3.32340300      2.44086800      0.59716400
H       2.95410400     -3.32640100     -1.51394900
H       1.19331800     -4.55169900     -0.21692500
H      -0.78318400     -4.51299400      1.18242200
H      -2.96960300     -3.37972900      1.63954500
H       4.45780900      1.17892900     -1.50351100
H       3.98462400     -1.18991900     -2.15635200
H      -4.51988000     -1.79557700      0.94219000
H      -5.12806600      0.38060400     -0.10756200
H      -4.50637700      2.45244400     -1.06033000
H      -2.78422400      4.08990900     -1.82776000
H      -0.38243900      3.43368400     -1.80746800
H       0.29620100      1.21103300     -1.09196100
H       0.15815300      0.65278900      2.01175500
H       1.03976800      2.70544600      3.10143900
H       3.02213800      3.86890800      2.17534100
H       4.20204300      2.93764100      0.18827600
          42
 Point  105
C       2.26295200     -1.37124600     -0.84290000
C       2.19076200     -2.79993600     -0.96138700
C       1.20183700     -3.46911900     -0.30420000
C       0.09358000     -2.74470100      0.25583100
C       0.01074300     -1.33522700      0.13150200
C       1.28658000     -0.67555000     -0.10447000
C      -0.96248700     -3.48365500      0.88208000
C      -2.15129600     -2.86905500      1.12704100
C      -2.37281900     -1.53275900      0.64698300
C      -1.31499300     -0.73374600      0.15780800
C       1.69253000      0.59275300      0.48195700
C       2.86778700      1.23289500      0.00918200
C       3.65195100      0.61451300     -1.03323700
C       3.38794300     -0.66538000     -1.40540200
C      -3.74719200     -1.09822900      0.60277300
C      -4.07695200      0.09668200      0.05330500
C      -3.04156400      0.96169100     -0.45103500
C      -1.67535200      0.56175200     -0.41912900
C      -3.42700100      2.22673000     -0.98142700
C      -2.47972100      3.10582200     -1.45731900
C      -1.12095400      2.70692700     -1.48023200
C      -0.74624100      1.46105600     -1.02048000
C       1.01359100      1.15921700      1.59802800
C       1.48851000      2.30450800      2.20333500
C       2.63916900      2.96163600      1.69989800
C       3.31013400      2.44191600      0.61342600
H       2.96837700     -3.32338500     -1.51395200
H       1.19467300     -4.55637800     -0.24344800
H      -0.79036200     -4.52652700      1.14384800
H      -2.96606300     -3.38731200      1.63074100
H       4.47585100      1.17830200     -1.46759900
H       4.01023600     -1.18881700     -2.13020500
H      -4.51187000     -1.76671000      0.99926800
H      -5.11402600      0.42718300     -0.01576700
H      -4.48507000      2.48963500     -0.99453600
H      -2.75942500      4.08799000     -1.83212600
H      -0.37264800      3.38740900     -1.88780200
H       0.29123700      1.15968500     -1.16414900
H       0.11782600      0.66336600      1.97679300
H       0.98052900      2.71900700      3.07350000
H       2.98405400      3.87409300      2.18319100
H       4.19697900      2.93587300      0.21923200
          42
 Point  106
C       2.27085500     -1.37194600     -0.83902200
C       2.19954500     -2.80004100     -0.96488500
C       1.20408300     -3.47332200     -0.32194700
C       0.09250000     -2.75242700      0.23558500
C       0.01184800     -1.34252000      0.11896400
C       1.28635800     -0.67848400     -0.10956400
C      -0.96626400     -3.49263700      0.85603500
C      -2.15044700     -2.87483800      1.11567700
C      -2.36883600     -1.53200000      0.65348000
C      -1.31232600     -0.73909100      0.15311700
C       1.67991600      0.59414000      0.47625300
C       2.86151400      1.23395100      0.01972700
C       3.66103200      0.61472200     -1.01026200
C       3.40236300     -0.66494400     -1.38665000
C      -3.73710900     -1.07848200      0.64273800
C      -4.06192100      0.12635700      0.11189000
C      -3.02876900      0.97730100     -0.41933900
C      -1.66942200      0.55651000     -0.42392700
C      -3.40758600      2.24609800     -0.94547000
C      -2.46095700      3.10151300     -1.46259900
C      -1.11183500      2.67672100     -1.52900900
C      -0.74340000      1.43087900     -1.06463800
C       0.98299600      1.16522900      1.57847900
C       1.44717000      2.31325500      2.18685500
C       2.60652500      2.96791400      1.70129800
C       3.29486400      2.44426700      0.62795200
H       2.98247300     -3.32074800     -1.51257600
H       1.19598900     -4.56095600     -0.26908600
H      -0.79895000     -4.53936300      1.10490500
H      -2.96415700     -3.39496400      1.61919900
H       4.49095100      1.17846800     -1.43283300
H       4.03419300     -1.18752900     -2.10364000
H      -4.50156700     -1.73946100      1.05139500
H      -5.09438800      0.47361800      0.07397900
H      -4.45959200      2.53012900     -0.92402500
H      -2.73492000      4.08537400     -1.83735800
H      -0.36719100      3.33793400     -1.97225000
H       0.28376000      1.10780500     -1.23361300
H       0.08209500      0.67057100      1.94603300
H       0.92460800      2.73113900      3.04635600
H       2.94433200      3.88137900      2.18758500
H       4.18841300      2.93632600      0.24713800
          42
 Point  107
C       2.27909200     -1.37321100     -0.83464300
C       2.20855900     -2.80067400     -0.96820900
C       1.20610900     -3.47813700     -0.34030300
C       0.09111600     -2.76081200      0.21464400
C       0.01313500     -1.35036300      0.10663000
C       1.28639700     -0.68211400     -0.11415800
C      -0.97085500     -3.50251100      0.82808700
C      -2.15011500     -2.88113000      1.10314500
C      -2.36462500     -1.53106600      0.66043800
C      -1.30919500     -0.74447700      0.14896100
C       1.66737600      0.59490800      0.47095400
C       2.85448200      1.23521100      0.02969900
C       3.66975500      0.61487500     -0.98738800
C       3.41711800     -0.66494300     -1.36724100
C      -3.72663800     -1.05767500      0.68430500
C      -4.04613400      0.15689300      0.17166200
C      -3.01503000      0.99289800     -0.38790600
C      -1.66264000      0.55145000     -0.42797500
C      -3.38720300      2.26462300     -0.91166100
C      -2.44153400      3.09705200     -1.46859200
C      -1.10203700      2.64761300     -1.57516600
C      -0.73977500      1.40179500     -1.10626500
C       0.95255000      1.17043400      1.55957500
C       1.40493100      2.32220300      2.16985300
C       2.57177900      2.97557900      1.70073700
C       3.27759800      2.44794600      0.64058100
H       2.99706100     -3.31854900     -1.51078200
H       1.19679100     -4.56620400     -0.29608400
H      -0.80910300     -4.55370200      1.06229600
H      -2.96310600     -3.40341300      1.60564500
H       4.50578600      1.17860800     -1.39809100
H       4.05930500     -1.18688800     -2.07560800
H      -4.49108700     -1.71012900      1.10674500
H      -5.07396300      0.52163500      0.16600600
H      -4.43305900      2.56848100     -0.85846900
H      -2.70980100      4.08207800     -1.84457800
H      -0.36094300      3.29046000     -2.05147600
H       0.27740100      1.05816200     -1.29905800
H       0.04699500      0.67635200      1.91654900
H       0.86739100      2.74366900      3.01851000
H       2.90124200      3.89110900      2.18891900
H       4.17701500      2.93896600      0.27226100
          42
 Point  108
C       2.28741500     -1.37511800     -0.82963100
C       2.21728000     -2.80183400     -0.97149600
C       1.20737400     -3.48334900     -0.35982800
C       0.08903300     -2.76955700      0.19256700
C       0.01447600     -1.35852200      0.09433100
C       1.28659500     -0.68636900     -0.11833500
C      -0.97688500     -3.51248600      0.79797200
C      -2.15046300     -2.88715100      1.08977100
C      -2.35991200     -1.52952200      0.66836100
C      -1.30565100     -0.74966600      0.14551900
C       1.65502400      0.59483800      0.46598600
C       2.84665900      1.23638600      0.03937700
C       3.67796100      0.61463600     -0.96378900
C       3.43196500     -0.66562000     -1.34649000
C      -3.71377400     -1.03570000      0.72754600
C      -4.02658500      0.18759200      0.23123200
C      -2.99901400      1.00809400     -0.35777600
C      -1.65527700      0.54677600     -0.43102200
C      -3.36443100      2.28174800     -0.88141700
C      -2.42196300      3.09197400     -1.47492600
C      -1.09387400      2.61968900     -1.61669400
C      -0.73728800      1.37415300     -1.14311300
C       0.92277900      1.17449400      1.54084100
C       1.36190600      2.33130500      2.15122400
C       2.53462800      2.98468300      1.69736600
C       3.25804900      2.45278100      0.65130000
H       3.01147100     -3.31693100     -1.50857800
H       1.19644300     -4.57179900     -0.32527700
H      -0.82187400     -4.56842100      1.01556900
H      -2.96309200     -3.41162500      1.59059800
H       4.52002500      1.17832000     -1.36221500
H       4.08511000     -1.18712100     -2.04518400
H      -4.47757900     -1.67854300      1.16573800
H      -5.04778400      0.56965500      0.25743700
H      -4.40248500      2.60421400     -0.80043200
H      -2.68485600      4.07757000     -1.85331600
H      -0.35792300      3.24520800     -2.12231200
H       0.26929900      1.01160600     -1.35604300
H       0.01379300      0.68000500      1.88836100
H       0.80927900      2.75650200      2.98829900
H       2.85424600      3.90354600      2.18586500
H       4.16230000      2.94360400      0.29489700
          42
 Point  109
C       2.29559700     -1.37728500     -0.82337800
C       2.22572800     -2.80315000     -0.97372800
C       1.20835200     -3.48842300     -0.37889300
C       0.08657900     -2.77804600      0.17052000
C       0.01571100     -1.36653900      0.08234100
C       1.28684600     -0.69073600     -0.12144800
C      -0.98380700     -3.52178800      0.76733800
C      -2.15177600     -2.89301200      1.07471100
C      -2.35533500     -1.52844000      0.67447100
C      -1.30216200     -0.75485600      0.14169300
C       1.64306600      0.59435100      0.46209700
C       2.83825500      1.23777200      0.04899500
C       3.68509900      0.61449600     -0.93985500
C       3.44615800     -0.66647100     -1.32458200
C      -3.69916000     -1.01459500      0.76828400
C      -4.00388800      0.21809900      0.28992800
C      -2.98131100      1.02404700     -0.32670600
C      -1.64789500      0.54249800     -0.43362300
C      -3.34000100      2.30013700     -0.84884300
C      -2.40320400      3.08656100     -1.48130700
C      -1.08847700      2.59064100     -1.65948100
C      -0.73652500      1.34638200     -1.17949300
C       0.89505900      1.17723600      1.52410400
C       1.32047700      2.33988600      2.13285000
C       2.49709000      2.99478700      1.69197300
C       3.23730000      2.45867300      0.66022000
H       3.02544100     -3.31566200     -1.50512600
H       1.19588300     -4.57706900     -0.35383800
H      -0.83564400     -4.58164600      0.96924500
H      -2.96451100     -3.41936000      1.57339400
H       4.53225200      1.17839400     -1.32686700
H       4.10969200     -1.18748900     -2.01362200
H      -4.46182900     -1.64890200      1.22000700
H      -5.01646500      0.61739900      0.34796000
H      -4.36836400      2.64280600     -0.73740700
H      -2.66135000      4.07242600     -1.86238500
H      -0.35984500      3.19764500     -2.19648000
H       0.25893300      0.96521400     -1.41112600
H      -0.01528400      0.68072300      1.86491900
H       0.75456300      2.76789800      2.95923500
H       2.80673800      3.91763300      2.17924500
H       4.14531800      2.94997800      0.31441700
          42
 Point  110
C       2.30417600     -1.38010100     -0.81646500
C       2.23434500     -2.80505400     -0.97571300
C       1.20898400     -3.49405800     -0.39854700
C       0.08378100     -2.78703300      0.14779000
C       0.01711900     -1.37496000      0.07051500
C       1.28740500     -0.69575800     -0.12403800
C      -0.99152000     -3.53174200      0.73499700
C      -2.15353800     -2.89916200      1.05873300
C      -2.35050500     -1.52709700      0.68104800
C      -1.29825700     -0.75995600      0.13834100
C       1.63127600      0.59330400      0.45857800
C       2.82931400      1.23926800      0.05802800
C       3.69218400      0.61404600     -0.91582600
C       3.46090700     -0.66801400     -1.30171600
C      -3.68415500     -0.99282000      0.81014200
C      -3.98062600      0.24889100      0.34900500
C      -2.96300800      1.03980700     -0.29605300
C      -1.63984900      0.53846000     -0.43558500
C      -3.31524700      2.31765700     -0.81806900
C      -2.38418800      3.08137700     -1.48739200
C      -1.08245300      2.56298100     -1.69949000
C      -0.73502400      1.31977000     -1.21376700
C       0.86765300      1.17927100      1.50799300
C       1.27845500      2.34872100      2.11387300
C       2.45776800      3.00628100      1.68439300
C       3.21483400      2.46583400      0.66703300
H       3.03977800     -3.31497500     -1.50117100
H       1.19458400     -4.58293900     -0.38373100
H      -0.85092200     -4.59603200      0.91959300
H      -2.96669900     -3.42757200      1.55455300
H       4.54455800      1.17809900     -1.29132900
H       4.13562000     -1.18888400     -1.98015600
H      -4.44571000     -1.61789200      1.27664000
H      -4.98452500      0.66555300      0.43899100
H      -4.33420300      2.67909300     -0.67890100
H      -2.63774600      4.06727900     -1.87161300
H      -0.36081000      3.15250900     -2.26549700
H       0.24963100      0.92071000     -1.46351700
H      -0.04346700      0.68010900      1.84286800
H       0.69905300      2.77970600      2.92947400
H       2.75621200      3.93422300      2.16913900
H       4.12573100      2.95848500      0.33075400
          42
 Point  111
C       2.31284900     -1.38373200     -0.80863500
C       2.24248200     -2.80759600     -0.97755600
C       1.20869900     -3.49999600     -0.41930500
C       0.08027500     -2.79615100      0.12407300
C       0.01858200     -1.38356000      0.05876300
C       1.28819800     -0.70143800     -0.12599800
C      -1.00057200     -3.54130400      0.70101100
C      -2.15586200     -2.90470000      1.04227000
C      -2.34513000     -1.52525600      0.68831500
C      -1.29396500     -0.76479500      0.13551000
C       1.61980400      0.59141000      0.45559900
C       2.81979300      1.24058700      0.06670800
C       3.69896400      0.61292100     -0.89086700
C       3.47585500     -0.67054400     -1.27707000
C      -3.66678900     -0.97079300      0.85246600
C      -3.95407700      0.27891400      0.40666900
C      -2.94297900      1.05492700     -0.26679100
C      -1.63130400      0.53481800     -0.43676500
C      -3.28910600      2.33386200     -0.78992100
C      -2.36543900      3.07620400     -1.49245400
C      -1.07757900      2.53715700     -1.73456800
C      -0.73415900      1.29490200     -1.24388000
C       0.84105000      1.18021100      1.49237300
C       1.23586700      2.35778400      2.09311700
C       2.41631800      3.01930100      1.67326300
C       3.19036400      2.47414800      0.67129900
H       3.05358100     -3.31510500     -1.49678700
H       1.19188400     -4.58898900     -0.41582600
H      -0.86859200     -4.60992500      0.86679100
H      -2.96978500     -3.43495000      1.53484700
H       4.55655400      1.17699800     -1.25446300
H       4.16229400     -1.19158400     -1.94363200
H      -4.42634300     -1.58614700      1.33488100
H      -4.94756200      0.71217500      0.52730100
H      -4.29772800      2.71269300     -0.62648300
H      -2.61494000      4.06187300     -1.88001500
H      -0.36389300      3.11053800     -2.32604600
H       0.23948000      0.87931900     -1.50954300
H      -0.06956000      0.67734600      1.82301700
H       0.64294300      2.79187400      2.89730800
H       2.70212700      3.95368900      2.15336000
H       4.10312300      2.96901500      0.34356900
          42
 Point  112
C       2.32138100     -1.38761500     -0.79936100
C       2.25047800     -2.81029400     -0.97788100
C       1.20839600     -3.50562000     -0.43905500
C       0.07658600     -2.80477300      0.10071000
C       0.01988200     -1.39188100      0.04717500
C       1.28896800     -0.70708200     -0.12696800
C      -1.01018700     -3.54989400      0.66694100
C      -2.15914300     -2.91003400      1.02398300
C      -2.34015200     -1.52414200      0.69313100
C      -1.28991800     -0.76976200      0.13172300
C       1.60874200      0.58927600      0.45357500
C       2.80996800      1.24205800      0.07518500
C       3.70500500      0.61171200     -0.86542000
C       3.49028100     -0.67342500     -1.25091700
C      -3.64813600     -0.95016300      0.89168400
C      -3.92483900      0.30829600      0.46340100
C      -2.92153100      1.07056900     -0.23667000
C      -1.62296500      0.53140300     -0.43807900
C      -3.26145600      2.35139700     -0.75885600
C      -2.34777700      3.07115600     -1.49669400
C      -1.07575000      2.51076600     -1.77057500
C      -0.73519300      1.27009300     -1.27414200
C       0.81636000      1.18019400      1.47868900
C       1.19499700      2.36634400      2.07248600
C       2.37501400      3.03293800      1.65979500
C       3.16527500      2.48317600      0.67347700
H       3.06712000     -3.31565500     -1.49055100
H       1.18937800     -4.59448100     -0.44654800
H      -0.88666600     -4.62185000      0.81518400
H      -2.97426800     -3.44181400      1.51286100
H       4.56713700      1.17592100     -1.21777100
H       4.18795100     -1.19475000     -1.90527500
H      -4.40533200     -1.55697400      1.38779000
H      -4.90593900      0.75814900      0.61538300
H      -4.25769300      2.74905800     -0.56829500
H      -2.59381400      4.05655100     -1.88728200
H      -0.37226100      3.06717700     -2.38927700
H       0.22695400      0.83833500     -1.55499500
H      -0.09212600      0.67248000      1.80767000
H       0.59013400      2.80275700      2.86617800
H       2.64828100      3.97408200      2.13367200
H       4.07916600      2.98065000      0.35299700
          42
 Point  113
C       2.33045000     -1.39239300     -0.78917700
C       2.25880200     -2.81383600     -0.97752000
C       1.20782400     -3.51191100     -0.45900700
C       0.07259400     -2.81386700      0.07678000
C       0.02135100     -1.40059900      0.03568500
C       1.29009500     -0.71347100     -0.12746600
C      -1.02052300     -3.55905300      0.63136700
C      -2.16284500     -2.91562800      1.00481400
C      -2.33496200     -1.52287800      0.69816800
C      -1.28550600     -0.77465200      0.12828200
C       1.59786100      0.58660600      0.45163900
C       2.79971400      1.24352700      0.08280800
C       3.71125400      0.60986600     -0.83980900
C       3.50551800     -0.67738900     -1.22347300
C      -3.62929500     -0.92942900      0.93119000
C      -3.89544900      0.33733500      0.51959300
C      -2.89979000      1.08587800     -0.20698300
C      -1.61408600      0.52828500     -0.43868900
C      -3.23379700      2.36828300     -0.72877200
C      -2.32970100      3.06705100     -1.49912700
C      -1.07293600      2.48646100     -1.80283800
C      -0.73539300      1.24677900     -1.30204600
C       0.79186600      1.17971300      1.46512600
C       1.15336800      2.37548600      2.05051000
C       2.33180600      3.04817000      1.64331100
C       3.13849500      2.49347800      0.67294800
H       3.08122200     -3.31716600     -1.48316400
H       1.18618600     -4.60066400     -0.47802000
H      -0.90608300     -4.63472100      0.76071500
H      -2.97949900     -3.44904300      1.48932900
H       4.57810900      1.17405500     -1.18080400
H       4.21523800     -1.19950100     -1.86443000
H      -4.38410800     -1.52737800      1.44165600
H      -4.86431100      0.80340200      0.70219200
H      -4.21825500      2.78328800     -0.51357500
H      -2.57230000      4.05230600     -1.89235400
H      -0.37900800      3.02720400     -2.44629700
H       0.21551200      0.79942900     -1.59796200
H      -0.11386100      0.66656000      1.79330400
H       0.53636200      2.81450800      2.83350200
H       2.59124200      3.99728300      2.10937600
H       4.05263600      2.99437400      0.35853100
          42
 Point  114
C       2.33969900     -1.39837700     -0.77758100
C       2.26670300     -2.81837400     -0.97644200
C       1.20646300     -3.51858800     -0.47943800
C       0.06805400     -2.82299600      0.05230600
C       0.02288500     -1.40949400      0.02437400
C       1.29153700     -0.72070200     -0.12710300
C      -1.03187200     -3.56759400      0.59486500
C      -2.16701900     -2.92063300      0.98519900
C      -2.32938200     -1.52154100      0.70312300
C      -1.28078300     -0.77937000      0.12508600
C       1.58739200      0.58306000      0.45015900
C       2.78898200      1.24469300      0.08957100
C       3.71738700      0.60689200     -0.81321400
C       3.52110400     -0.68290600     -1.19364900
C      -3.60877600     -0.90976200      0.96918800
C      -3.86385300      0.36437800      0.57276600
C      -2.87688600      1.10026000     -0.17864200
C      -1.60476000      0.52563200     -0.43842700
C      -3.20526800      2.38421100     -0.69978500
C      -2.31151100      3.06426000     -1.49817000
C      -1.07028000      2.46545800     -1.82858400
C      -0.73561700      1.22604100     -1.32541900
C       0.76820300      1.17840600      1.45187800
C       1.11105900      2.38528800      2.02568900
C       2.28626300      3.06525900      1.62140100
C       3.10965500      2.50500800      0.66836100
H       3.09475200     -3.32001700     -1.47470600
H       1.18172100     -4.60703400     -0.51088300
H      -0.92724000     -4.64651600      0.70455100
H      -2.98555400     -3.45531800      1.46506700
H       4.58902600      1.17080700     -1.14248300
H       4.24339500     -1.20634600     -1.81948600
H      -4.36047000     -1.49911100      1.49390600
H      -4.81936800      0.84526000      0.78375400
H      -4.17760900      2.81493000     -0.46295500
H      -2.55097300      4.04966400     -1.89302200
H      -0.38615700      2.99247300     -2.49301400
H       0.20401700      0.76445600     -1.63516500
H      -0.13330000      0.65878100      1.78156900
H       0.48187800      2.82726700      2.79727600
H       2.53031600      4.02380800      2.07667600
H       4.02297500      3.01015800      0.35850800
          42
 Point  115
C       2.34885900     -1.40473300     -0.76396400
C       2.27515100     -2.82335700     -0.97206100
C       1.20597200     -3.52502200     -0.49684100
C       0.06377500     -2.83156000      0.02908700
C       0.02414700     -1.41808700      0.01320200
C       1.29278200     -0.72778800     -0.12587900
C      -1.04328100     -3.57532600      0.55870900
C      -2.17244500     -2.92593900      0.96283000
C      -2.32490800     -1.52159300      0.70424400
C      -1.27669500     -0.78455800      0.12020300
C       1.57722300      0.57964100      0.44893000
C       2.77810800      1.24600200      0.09531200
C       3.72291000      0.60367800     -0.78650900
C       3.53615000     -0.68903100     -1.16201200
C      -3.58838200     -0.89271000      1.00230100
C      -3.83076600      0.38975300      0.62436800
C      -2.85291500      1.11488000     -0.14912900
C      -1.59599800      0.52304800     -0.43860100
C      -3.17481900      2.40199400     -0.66602400
C      -2.29360500      3.06314600     -1.49362300
C      -1.07029400      2.44533300     -1.85371300
C      -0.73792000      1.20591100     -1.34909200
C       0.74618200      1.17700700      1.43962300
C       1.07047500      2.39504000      1.99973300
C       2.24130000      3.08262000      1.59572600
C       3.08068600      2.51684300      0.66046900
H       3.10903000     -3.32375400     -1.46185700
H       1.17877400     -4.61292800     -0.53941100
H      -0.94777900     -4.65647100      0.65051100
H      -2.99347800     -3.46179600      1.43700600
H       4.59873700      1.16734000     -1.10478000
H       4.27046600     -1.21416800     -1.77191700
H      -4.33723400     -1.47512100      1.53819200
H      -4.77126200      0.88510900      0.86470400
H      -4.13273600      2.84966500     -0.40424100
H      -2.52985300      4.04942200     -1.88836300
H      -0.39804500      2.95846800     -2.54040100
H       0.18965800      0.73030200     -1.67315100
H      -0.14989000      0.65051600      1.77309300
H       0.43052400      2.83956100      2.76065700
H       2.47021800      4.05048000      2.03839700
H       3.99276400      3.02617600      0.35385000
          42
 Point  116
C       2.35880800     -1.41284300     -0.74850200
C       2.28453100     -2.83021200     -0.96494100
C       1.20574700     -3.53282800     -0.51223200
C       0.05944600     -2.84094300      0.00640400
C       0.02554400     -1.42741400      0.00251700
C       1.29446800     -0.73611300     -0.12390300
C      -1.05520600     -3.58409900      0.52176200
C      -2.17871600     -2.93225200      0.93877000
C      -2.32087900     -1.52248800      0.70393400
C      -1.27249900     -0.79014600      0.11531700
C       1.56731200      0.57568500      0.44698200
C       2.76670500      1.24721700      0.09858200
C       3.72863000      0.59912900     -0.76064200
C       3.55216400     -0.69730300     -1.12879300
C      -3.56943600     -0.87769900      1.03204000
C      -3.79945300      0.41270500      0.67219500
C      -2.82937000      1.12853500     -0.12027300
C      -1.58679400      0.52080300     -0.43741000
C      -3.14433300      2.41969500     -0.63100200
C      -2.27355100      3.06560000     -1.48192600
C      -1.06706200      2.43053000     -1.86960300
C      -0.73835600      1.18910200     -1.36754900
C       0.72434800      1.17600200      1.42608900
C       1.02873700      2.40698700      1.96950200
C       2.19380500      3.10301500      1.56319500
C       3.04959600      2.53052700      0.64672800
H       3.12469300     -3.32978400     -1.44507100
H       1.17580600     -4.62025400     -0.56554400
H      -0.96900600     -4.66764400      0.59520200
H      -3.00285500     -3.46939700      1.40607400
H       4.60866400      1.16227100     -1.06839900
H       4.29929600     -1.22509600     -1.72108800
H      -4.31598600     -1.45385700      1.57778200
H      -4.72603800      0.92116900      0.93935000
H      -4.08910800      2.88221900     -0.34714700
H      -2.50574100      4.05399900     -1.87390000
H      -0.40476800      2.93258100     -2.57404500
H       0.17742200      0.70035200     -1.70628300
H      -0.16537200      0.64209800      1.76495400
H       0.37773400      2.85504400      2.71905500
H       2.40602700      4.08195100      1.99041800
H       3.95940500      3.04473000      0.34149500
          42
 Point  117
C       2.36868900     -1.42304500     -0.73009800
C       2.29461600     -2.83948100     -0.95216800
C       1.20660900     -3.54189100     -0.52136500
C       0.05565400     -2.85061100     -0.01263600
C       0.02677000     -1.43717100     -0.00628800
C       1.29625400     -0.74555700     -0.12023600
C      -1.06689500     -3.59313700      0.48709700
C      -2.18657000     -2.93985700      0.91239800
C      -2.31871100     -1.52587400      0.69893900
C      -1.26899100     -0.79661200      0.10981400
C       1.55811900      0.57149000      0.44404400
C       2.75458500      1.24851100      0.09689200
C       3.73294500      0.59320900     -0.73805700
C       3.56728100     -0.70807600     -1.09456900
C      -3.55421900     -0.86920800      1.05044000
C      -3.77183300      0.42861800      0.70907100
C      -2.80689300      1.13969500     -0.09355900
C      -1.57773200      0.51895500     -0.43433900
C      -3.11312700      2.43759100     -0.59237900
C      -2.24980500      3.07471900     -1.45655700
C      -1.05937400      2.42542500     -1.86901000
C      -0.73674800      1.17851600     -1.37650800
C       0.70466100      1.17605000      1.41155800
C       0.98851000      2.42157000      1.93308900
C       2.14568700      3.12643800      1.51926300
C       3.01690300      2.54605700      0.62244700
H       3.14124000     -3.33913000     -1.42100300
H       1.17439000     -4.62876100     -0.58327900
H      -0.98898600     -4.67819500      0.54427500
H      -3.01490700     -3.47823100      1.37085200
H       4.61634200      1.15565800     -1.03725500
H       4.32687500     -1.23973200     -1.66750000
H      -4.29984200     -1.44189500      1.60062700
H      -4.68606100      0.94667500      0.99730000
H      -4.04565700      2.91212000     -0.28963900
H      -2.47609700      4.06786200     -1.84019600
H      -0.40456000      2.92125000     -2.58394400
H       0.16744200      0.67870800     -1.72989800
H      -0.17698700      0.63445500      1.75955200
H       0.32746400      2.87428600      2.67095400
H       2.34041200      4.11776200      1.92654600
H       3.92290000      3.06557700      0.31494200
          42
 Point  118
C       2.37624000     -1.43208300     -0.71171200
C       2.30509100     -2.84890900     -0.93169300
C       1.21073600     -3.55043100     -0.51685000
C       0.05418700     -2.85872700     -0.02183700
C       0.02716700     -1.44534100     -0.01117400
C       1.29701800     -0.75322700     -0.11576600
C      -1.07504000     -3.60159000      0.46198900
C      -2.19581300     -2.94880000      0.88538700
C      -2.32114800     -1.53255400      0.68629900
C      -1.26804400     -0.80363300      0.10301000
C       1.55094000      0.56913600      0.43972900
C       2.74378900      1.25054300      0.08899400
C       3.73364600      0.58914400     -0.72641200
C       3.57714100     -0.71712900     -1.06819300
C      -3.54952000     -0.87006500      1.05067600
C      -3.75567300      0.43465600      0.72958300
C      -2.79003600      1.14686300     -0.07156800
C      -1.57148700      0.51711100     -0.43111700
C      -3.08470700      2.45432000     -0.55173400
C      -2.22387200      3.08958900     -1.42008300
C      -1.04822800      2.42937900     -1.85564200
C      -0.73437100      1.17431300     -1.37823400
C       0.69139400      1.17798600      1.39899600
C       0.95929900      2.43522100      1.89871300
C       2.10834000      3.14650900      1.47343300
C       2.99009200      2.55953100      0.59195400
H       3.15793400     -3.34957000     -1.38789300
H       1.17863000     -4.63717400     -0.58031700
H      -1.00121200     -4.68714900      0.50982300
H      -3.02913500     -3.48861300      1.33289200
H       4.61788100      1.15161800     -1.02287400
H       4.34549400     -1.25252400     -1.62499300
H      -4.29794100     -1.44355600      1.59629900
H      -4.66183000      0.95784100      1.03223000
H      -4.00648900      2.93772900     -0.23186600
H      -2.44145200      4.09000100     -1.78977300
H      -0.39752100      2.92379800     -2.57531900
H       0.15933500      0.66637300     -1.74559700
H      -0.18231100      0.63074600      1.75769700
H       0.29224800      2.89218200      2.62817900
H       2.28934200      4.14753200      1.86120800
H       3.89201000      3.08287200      0.27904000
          42
 Point  119
C       2.37864900     -1.43555700     -0.70500700
C       2.30881300     -2.85271900     -0.92295700
C       1.21255700     -3.55377100     -0.51267100
C       0.05398900     -2.86166700     -0.02310700
C       0.02727700     -1.44825100     -0.01172600
C       1.29733000     -0.75610900     -0.11363900
C      -1.07747600     -3.60486000      0.45482500
C      -2.19941200     -2.95243600      0.87567400
C      -2.32280700     -1.53559500      0.68044900
C      -1.26796100     -0.80625900      0.10083300
C       1.54890000      0.56832300      0.43800700
C       2.73987900      1.25139600      0.08427600
C       3.73309400      0.58773000     -0.72494800
C       3.57984000     -0.72052800     -1.06038200
C      -3.55026500     -0.87240500      1.04640400
C      -3.75292100      0.43440400      0.73215800
C      -2.78534400      1.14831900     -0.06515900
C      -1.56936900      0.51659800     -0.42920200
C      -3.07533200      2.45968100     -0.53722900
C      -2.21329200      3.09656600     -1.40318500
C      -1.04175200      2.43385100     -1.84527700
C      -0.73206900      1.17497600     -1.37528700
C       0.68799200      1.17891500      1.39491700
C       0.95049600      2.44052100      1.88599400
C       2.09590900      3.15416200      1.45489700
C       2.98058300      2.56475000      0.57812100
H       3.16375500     -3.35392400     -1.37452100
H       1.18067900     -4.64056300     -0.57557100
H      -1.00451100     -4.69054400      0.50037300
H      -3.03474800     -3.49281200      1.31867100
H       4.61713400      1.15028900     -1.02179600
H       4.35088200     -1.25740300     -1.61183700
H      -4.30052700     -1.44698800      1.58835900
H      -4.65772700      0.95818000      1.03730300
H      -3.99442100      2.94490000     -0.21302700
H      -2.42700000      4.10018400     -1.76628300
H      -0.39082400      2.92946200     -2.56387600
H       0.15844000      0.66503000     -1.74729300
H      -0.18253300      0.62972200      1.75825100
H       0.28195300      2.89921700      2.61293300
H       2.27202200      4.15890200      1.83484900
H       3.88040800      3.08963500      0.26181900
