          52
 Energy =    -62.37453922 a.u.  #Cluster:    1
C           6.45807301      0.37382643      7.95834424
C           6.71698549     -0.62457658      6.84049595
C           5.77503055     -0.37645060      5.66980128
C           5.86506640     -1.46251479      4.60346902
C           5.44559355     -2.81957472      5.15124893
C           5.26965430     -3.85401668      4.07933353
C           4.70881873     -5.03158469      4.28436871
C           4.19716554     -5.47739312      5.62903714
C           5.32168318     -6.02621114      6.46750530
C           5.69331580     -5.54963515      7.64099965
C           5.03671974     -4.39155794      8.33122408
C           5.38469547     -4.29095700      9.80868840
C           4.74790949     -3.05092733     10.42887236
C           3.23856089     -3.20831951     10.56575471
C           2.54909502     -1.92741801     11.02440260
C           2.58849678     -0.80206772      9.99281422
C           1.97634272     -1.21489228      8.65294475
C           3.01664523     -1.89319994      7.78458651
O           4.17954540     -1.52948382      7.80931891
O           2.64660445     -2.86550470      7.02194836
H           6.56312862      1.39066534      7.58113438
H           7.15726996      0.22131408      8.77887069
H           5.44113101      0.23149650      8.32631235
H           6.55507012     -1.63032796      7.22956321
H           7.74980633     -0.54479258      6.49953558
H           6.00734805      0.59222749      5.22511114
H           4.75232003     -0.34753902      6.05078433
H           6.88942590     -1.52336569      4.23200724
H           5.20901362     -1.19799733      3.77256070
H           4.51098007     -2.71018487      5.71006267
H           6.20427613     -3.17224641      5.85298969
H           5.64634934     -3.57631477      3.10025575
H           4.62567143     -5.75744883      3.48291053
H           3.44471128     -6.25644374      5.49091391
H           3.73686984     -4.62984521      6.14144674
H           5.84516927     -6.86428635      6.01730040
H           6.52929614     -5.98903839      8.17658015
H           3.95432120     -4.47544312      8.21686349
H           5.34935554     -3.46235616      7.84602422
H           6.46944175     -4.23409559      9.91160886
H           5.02877148     -5.17963291     10.33277181
H           4.97257584     -2.19401401      9.79090227
H           5.17386918     -2.86954167     11.41655847
H           3.03919152     -3.99646235     11.29376465
H           2.81143513     -3.52041223      9.61221090
H           3.02661549     -1.58154843     11.94274474
H           1.50385407     -2.15514706     11.24091680
H           3.62252926     -0.49723534      9.81188437
H           2.04724988      0.05186353     10.40025956
H           1.63408495     -0.32568045      8.12220412
H           1.12226598     -1.87279663      8.81463468
H           1.71004325     -3.06540222      7.09020406
          52
 Energy =    -62.37446640 a.u.  #Cluster:    2
C           5.41921517      1.70583337      6.55902925
C           6.21779401      0.44533432      6.85572192
C           6.44386010     -0.36335863      5.58565389
C           7.22163170     -1.64972302      5.84691045
C           6.43002609     -2.68705990      6.64811156
C           5.29831895     -3.26585002      5.85645979
C           5.09759197     -4.53992206      5.57569010
C           5.92536043     -5.70175127      6.04995824
C           5.06716726     -6.59167423      6.90515754
C           5.12414843     -6.69482368      8.22043385
C           6.09500771     -6.01609829      9.13772176
C           5.39852005     -5.32065910     10.30992752
C           4.84297889     -3.94979838      9.94096684
C           3.66529186     -4.00709701      8.97924638
C           3.13428975     -2.60889942      8.69887064
C           2.04952121     -2.62841633      7.63133492
C           1.52852382     -1.22521864      7.33603291
C           2.61354554     -0.37392089      6.70576337
O           3.68861998     -0.84709253      6.38894437
O           2.36379383      0.88048580      6.53257728
H           4.43371041      1.42832975      6.18251707
H           5.93411907      2.29914229      5.80421484
H           5.29795287      2.30271441      7.46131020
H           5.66982425     -0.15936384      7.57972782
H           7.18333902      0.71383816      7.28675929
H           7.00329764      0.24927700      4.87700953
H           5.47389515     -0.59911161      5.14512987
H           8.12724445     -1.39590975      6.40014560
H           7.51009342     -2.09526067      4.89380619
H           6.03005186     -2.20970477      7.54548333
H           7.11064025     -3.47786177      6.96281139
H           4.58858691     -2.52448758      5.50153872
H           4.22883347     -4.83457685      4.99394635
H           6.78991509     -5.35029174      6.61117644
H           6.27671308     -6.26795826      5.18435488
H           4.30715234     -7.13407682      6.35083617
H           4.42499080     -7.34612943      8.73849501
H           6.69416335     -5.28306231      8.59707396
H           6.76630202     -6.77767236      9.54203211
H           6.12022579     -5.19129156     11.11686216
H           4.58572381     -5.95455862     10.66891055
H           5.63819892     -3.35503752      9.48694412
H           4.51548184     -3.44474973     10.85182318
H           2.87023219     -4.61884578      9.40979647
H           3.97720067     -4.45524046      8.03572453
H           3.96293163     -1.98620318      8.35572113
H           2.73469068     -2.18049287      9.61979854
H           1.23199400     -3.26795005      7.96702112
H           2.46741583     -3.04844276      6.71369840
H           1.19663714     -0.75276039      8.26152212
H           0.67909844     -1.27524025      6.65413160
H           1.48504105      1.13303824      6.82782492
          52
 Energy =    -62.37441189 a.u.  #Cluster:    3
C           5.08870534      2.18869335      6.54333810
C           4.64492422      0.88024509      5.90838352
C           5.71656361     -0.19111089      6.05114408
C           5.19906260     -1.53992749      5.57428415
C           6.21032347     -2.66518506      5.78687145
C           6.29131315     -3.08499435      7.22382354
C           6.33063281     -4.32794974      7.66699701
C           6.29712683     -5.57075202      6.81959643
C           5.48137650     -6.63910077      7.48619950
C           4.25661138     -7.00216151      7.15101449
C           3.42443855     -6.41881527      6.04976704
C           2.30786321     -5.55097794      6.63453534
C           2.87902508     -4.31657946      7.31460425
C           1.79007558     -3.48570831      7.97641976
C           2.34359342     -2.20283432      8.58484357
C           3.27952460     -2.48218383      9.75300169
C           3.75985229     -1.17947779     10.39890612
C           4.55732172     -0.41673589      9.36319998
O           5.69789995     -0.73882916      9.08611594
O           3.96001993      0.53770601      8.72961869
H           6.04045680      2.50369187      6.11682679
H           5.20852281      2.03735390      7.61664830
H           4.34623434      2.96740477      6.37624513
H           4.42719685      1.03347309      4.85059498
H           3.73626547      0.53395876      6.40514939
H           6.00870822     -0.25810977      7.10166023
H           6.59458705      0.08800284      5.46623586
H           4.96130187     -1.46485395      4.51217158
H           4.28138766     -1.77992980      6.11522036
H           7.19125005     -2.31469546      5.45506969
H           5.92785500     -3.52058057      5.17178868
H           6.31402785     -2.26495115      7.93682404
H           6.39321873     -4.52317512      8.73356373
H           7.32011134     -5.93340442      6.68759396
H           5.88835147     -5.33685108      5.83607454
H           5.97129589     -7.10530642      8.33588903
H           3.74580812     -7.76825106      7.72797570
H           2.97880962     -7.22524043      5.46502565
H           4.03539198     -5.80146121      5.39010473
H           1.74633586     -6.13613141      7.36509745
H           1.63039630     -5.24056812      5.83839969
H           3.39213062     -3.70373597      6.57116710
H           3.60433802     -4.62859876      8.06749052
H           1.31535842     -4.07877671      8.76066057
H           1.03789946     -3.23451928      7.22646299
H           1.51762595     -1.58445152      8.94083462
H           2.87940381     -1.64914871      7.81086257
H           4.15283655     -3.03542599      9.40405783
H           2.75419264     -3.08873084     10.49248760
H           4.39319267     -1.41255919     11.25433203
H           2.89597786     -0.60127614     10.72697165
H           3.06456952      0.69292173      9.03813579
          52
 Energy =    -62.37427885 a.u.  #Cluster:    4
C           6.17460911      2.46236404      6.26240569
C           5.22716627      1.32269423      5.92316902
C           5.93029456     -0.02317461      6.02046782
C           4.97249644     -1.16537679      5.71146827
C           5.66221074     -2.52474800      5.74692162
C           6.05240323     -2.94983415      7.13285101
C           6.28209762     -4.19515877      7.50509850
C           6.18625031     -5.39895410      6.60893828
C           5.61847443     -6.56845308      7.35648177
C           4.42819658     -7.10826801      7.16735440
C           3.39876214     -6.66296179      6.17330409
C           2.28066287     -5.88865431      6.87463922
C           2.79167107     -4.56305352      7.41728210
C           1.69514449     -3.80064895      8.14579140
C           2.17157146     -2.43162462      8.61535056
C           3.18644431     -2.53151085      9.74526252
C           3.60870049     -1.14305874     10.23902746
C           4.35831913     -0.44880953      9.12289045
O           5.56008488     -0.58492604      8.99021278
O           3.66055498      0.22680553      8.26926228
H           7.01636143      2.45877636      5.56983486
H           6.55366955      2.33434988      7.27637965
H           5.66098629      3.42012879      6.19276160
H           4.84075021      1.45471220      4.91146515
H           4.38634095      1.32823786      6.62058085
H           6.32302715     -0.13875890      7.03331130
H           6.76368192     -0.05068102      5.31597069
H           4.55448351     -1.00602556      4.71620758
H           4.15364151     -1.14929170      6.43409188
H           6.55724737     -2.47476350      5.12030533
H           4.99562051     -3.27534791      5.31675028
H           6.15105559     -2.14568081      7.85593317
H           6.56747951     -4.42040673      8.52821272
H           7.18980806     -5.65380808      6.25625766
H           5.56980675     -5.16189304      5.74137917
H           6.27083957     -6.95157229      8.13583782
H           4.10559807     -7.93335824      7.79633752
H           2.97108706     -7.53597113      5.67797718
H           3.84687911     -6.01474671      5.41915911
H           1.89034076     -6.48901558      7.69833858
H           1.47266598     -5.69578429      6.16796827
H           3.15693296     -3.95593255      6.58655168
H           3.62056884     -4.74989923      8.10162957
H           1.36514092     -4.38274112      9.00842174
H           0.84986318     -3.67505148      7.46681062
H           1.31813519     -1.84942794      8.96711822
H           2.61925798     -1.90945459      7.76735842
H           4.07407357     -3.06504847      9.40139981
H           2.74250046     -3.09101064     10.57042175
H           4.26092852     -1.25069787     11.10526440
H           2.71722902     -0.58002536     10.51528788
H           2.72817862      0.26716263      8.49194141
          52
 Energy =    -62.37416069 a.u.  #Cluster:    5
C           2.66306109     -0.00343832      6.63809554
C           4.00512076     -0.50573440      6.13050085
C           3.88417773     -1.06297284      4.71821141
C           5.18433342     -1.71321425      4.25474634
C           5.33784048     -3.09903167      4.87172822
C           6.69092027     -3.68981089      4.62611325
C           7.41668453     -4.33603352      5.51924296
C           7.03276825     -4.59041305      6.95195712
C           8.07746630     -4.02432815      7.87284671
C           7.93097758     -2.95783878      8.63715843
C           6.67333155     -2.15128979      8.77525100
C           5.76478982     -2.73601523      9.85594173
C           4.56552790     -1.83277542     10.10291703
C           3.52607071     -2.49959393     10.99988818
C           2.73439657     -3.56280123     10.24293307
C           1.73293323     -2.93651280      9.27079410
C           1.59652112     -3.75121731      7.98641955
C           2.84063383     -3.59955710      7.13079165
O           3.91876911     -3.31653126      7.62202558
O           2.70630034     -3.75261151      5.85638153
H           2.29446637      0.78860276      5.98597152
H           2.76039902      0.38430165      7.65123512
H           1.94134932     -0.82054244      6.63993707
H           4.37057525     -1.28378625      6.80241125
H           4.72678707      0.31239181      6.13178930
H           3.61382664     -0.24983298      4.04313400
H           3.09040144     -1.81372042      4.69651576
H           6.02330493     -1.08450115      4.55839543
H           5.19156087     -1.80416744      3.16787207
H           4.56588695     -3.75306969      4.45556812
H           5.16465022     -3.02276756      5.94534758
H           7.06155617     -3.55307774      3.61396913
H           8.39568466     -4.72522849      5.25452367
H           6.97421103     -5.67018806      7.11123268
H           6.05772661     -4.15758321      7.17323356
H           9.02736870     -4.54977608      7.84185973
H           8.74941293     -2.63432451      9.27318172
H           6.12056649     -2.13760493      7.83464734
H           6.92154209     -1.12427446      9.04678540
H           6.32807268     -2.85550770     10.78265222
H           5.41931961     -3.71624699      9.52439603
H           4.10804835     -1.59440193      9.14075822
H           4.90976592     -0.90460430     10.56001641
H           2.83022476     -1.74876389     11.37675065
H           4.04026601     -2.95721396     11.84630108
H           2.20545381     -4.20144350     10.94990020
H           3.43597279     -4.18401104      9.68482722
H           2.07011560     -1.93459131      8.99798432
H           0.76190497     -2.84332189      9.75741264
H           0.72895317     -3.41476242      7.41807307
H           1.45953470     -4.80446968      8.23481516
H           1.80904138     -3.97575849      5.59769720
          52
 Energy =    -62.37339493 a.u.  #Cluster:    6
C           8.06592053     -2.11592797     11.04706128
C           7.98711689     -1.33156173      9.74711770
C           6.56099220     -0.87582467      9.47752223
C           6.41787783     -0.28161514      8.08541554
C           4.95549925      0.03965100      7.78225926
C           4.80112281      0.57629725      6.39234867
C           4.40693615     -0.10449941      5.33193607
C           3.96871518     -1.54374516      5.30622880
C           2.53484387     -1.64032331      4.85875308
C           1.48277471     -1.69479604      5.65493694
C           1.49656203     -1.71340749      7.15269848
C           0.71025103     -2.90612557      7.69702890
C           1.30368982     -4.23683000      7.24719366
C           2.68723446     -4.48261163      7.83377235
C           3.21725384     -5.84483114      7.41011723
C           4.57869351     -6.17791571      8.00870864
C           5.70328199     -5.29421887      7.45630566
C           5.75821794     -3.96622178      8.18100609
O           5.44507850     -2.92277930      7.63783934
O           6.13454864     -3.99049656      9.41606204
H           7.72473493     -1.49452566     11.87453676
H           9.08697639     -2.44033891     11.24049593
H           7.41974215     -2.99090412     10.97186968
H           8.31854726     -1.96607644      8.92305444
H           8.64265224     -0.46115922      9.79751072
H           6.26020379     -0.13984687     10.22444529
H           5.89633826     -1.73983527      9.55265598
H           6.77417123     -1.01236083      7.35641583
H           7.02034803      0.62406334      8.00503520
H           4.60171350      0.77689839      8.50495133
H           4.37607348     -0.87579537      7.90866598
H           5.10148499      1.61452509      6.28193274
H           4.34767870      0.38446553      4.36351424
H           4.09052820     -1.99648642      6.28974687
H           4.59714736     -2.08759586      4.59749832
H           2.39818473     -1.61177910      3.78207055
H           0.48453796     -1.74633714      5.22813659
H           1.03521497     -0.79521193      7.52275546
H           2.51896345     -1.75262769      7.52563412
H          -0.31905028     -2.83562493      7.34187932
H           0.70959535     -2.86886375      8.78712378
H           1.37212689     -4.25282078      6.15742311
H           0.64342655     -5.04684377      7.56210204
H           2.62993326     -4.43721211      8.92316235
H           3.36530281     -3.70442020      7.48552351
H           3.29215601     -5.87066614      6.32097528
H           2.49860288     -6.60498329      7.72294896
H           4.80662283     -7.22100434      7.78623549
H           4.54079401     -6.05703350      9.09355977
H           5.54476118     -5.12756636      6.39040402
H           6.65455521     -5.80560312      7.60368530
H           6.34403331     -4.87568609      9.72436126
          52
 Energy =    -62.37326901 a.u.  #Cluster:    7
C           5.06801843      0.75395137      6.82568915
C           5.11784407     -0.24461364      5.67955833
C           3.88350146     -1.13581593      5.69229221
C           3.79921422     -2.06245015      4.48157927
C           4.69829358     -3.29410471      4.59749546
C           6.15595036     -2.95772950      4.53621423
C           7.07717981     -3.35631426      5.39421243
C           6.82575352     -4.19599907      6.62048423
C           7.84948227     -3.90556643      7.68219344
C           7.74639695     -2.94611385      8.58360387
C           6.56405760     -2.04037520      8.74367335
C           5.66931076     -2.51447275      9.88665716
C           4.45330675     -1.61184105     10.02764810
C           3.44207411     -2.15679910     11.03206458
C           2.73085112     -3.39986306     10.50433318
C           1.74137700     -3.06745018      9.38714555
C           1.67385254     -4.18804008      8.35509530
C           2.95019935     -4.22571905      7.53664789
O           3.87464168     -3.46295362      7.75581086
O           3.01249497     -5.08154016      6.57340287
H           4.18781209      1.38887131      6.72384661
H           5.96024005      1.37838740      6.82912789
H           5.00615331      0.21789823      7.77200433
H           6.01551551     -0.85497973      5.77611471
H           5.16178956      0.29265028      4.73057704
H           3.00199479     -0.49212237      5.70396040
H           3.88394756     -1.73413012      6.60626508
H           4.07644885     -1.50138675      3.58692892
H           2.76919406     -2.40312284      4.37101803
H           4.46588105     -3.96282463      3.76485723
H           4.47137529     -3.81809037      5.52702904
H           6.43438594     -2.34769914      3.68133924
H           8.11718045     -3.07984741      5.24943154
H           6.88145866     -5.25177489      6.34471721
H           5.82088100     -3.99696636      7.00125983
H           8.74259900     -4.52073529      7.63897828
H           8.53194761     -2.79835609      9.31855663
H           5.97037466     -2.02479124      7.82956436
H           6.89858372     -1.02413609      8.95814787
H           6.23474536     -2.52240370     10.81942050
H           5.34142365     -3.53091193      9.66355421
H           3.97662747     -1.52603113      9.04912466
H           4.78246569     -0.61962461     10.33765254
H           2.69529009     -1.39137283     11.24804911
H           3.96856629     -2.40367909     11.95526165
H           2.20400676     -3.89344505     11.32078258
H           3.48146356     -4.09262295     10.12159977
H           2.06539408     -2.16023865      8.87277341
H           0.75494393     -2.88320018      9.81216684
H           0.83354573     -4.03097296      7.67792236
H           1.53636169     -5.14763036      8.85451831
H           2.21832927     -5.61737878      6.49654347
          52
 Energy =    -62.37326727 a.u.  #Cluster:    8
C           8.41410088     -3.41583502      9.14330777
C           7.74963272     -2.04877551      9.11572437
C           7.04144639     -1.81266595      7.79075399
C           6.26314362     -0.50608024      7.79517190
C           5.45448140     -0.36518977      6.50706026
C           4.62344533      0.88015863      6.51440803
C           3.30593221      0.92447415      6.59103204
C           2.40424065     -0.28291250      6.64122650
C           2.11261028     -0.77872351      5.25062952
C           2.37378356     -1.98019496      4.77048525
C           2.98155821     -3.13726491      5.50464241
C           2.17455685     -4.41216667      5.27913350
C           2.84615938     -5.64715909      5.87105653
C           2.95705159     -5.59338939      7.39769137
C           4.35277915     -5.19799914      7.86404016
C           4.44917105     -5.11302746      9.38410921
C           3.63721077     -3.95205842      9.97348314
C           4.18884684     -2.63881937      9.46626625
O           4.06715138     -2.31864780      8.29712826
O           4.84004362     -1.88710767     10.28841082
H           7.65920822     -4.19177798      9.01237835
H           8.92509318     -3.57447937     10.09191653
H           9.13814142     -3.48952093      8.33170269
H           8.50012046     -1.27145049      9.26614440
H           7.01712264     -1.98504825      9.92321982
H           6.34295321     -2.63203465      7.60586324
H           7.77347638     -1.79700376      6.98137787
H           6.95042996      0.33473129      7.89576849
H           5.57831881     -0.50953994      8.64640964
H           4.82137068     -1.24620266      6.40615499
H           6.14834926     -0.33795681      5.66426246
H           5.20004119      1.80025390      6.48455313
H           2.79149385      1.88008519      6.58136363
H           1.46292817     -0.00359158      7.11891434
H           2.87292494     -1.07038091      7.23203633
H           1.66381823     -0.02587503      4.60827305
H           2.12649351     -2.20967950      3.73682526
H           3.03486387     -2.92396233      6.57169566
H           3.99740204     -3.30035666      5.13433964
H           2.05119195     -4.55828300      4.20434305
H           1.18732530     -4.29368441      5.72938036
H           3.84633851     -5.74555275      5.44530803
H           2.26267414     -6.52112712      5.58021008
H           2.72504739     -6.57241831      7.81963120
H           2.22689320     -4.87848788      7.77994763
H           4.62578707     -4.23642643      7.42847744
H           5.06217001     -5.94628140      7.50750874
H           5.49470781     -4.98259924      9.66934575
H           4.08783068     -6.05104057      9.80939038
H           3.69106630     -3.99469516     11.06110067
H           2.59684827     -4.05104981      9.66376847
H           4.86900318     -2.23826522     11.18175545
          52
 Energy =    -62.37323997 a.u.  #Cluster:    9
C           8.02953945     -1.03173686      6.95435524
C           7.04840654     -1.38968033      5.84860550
C           5.70294169     -0.72212056      6.09237720
C           4.67039303     -1.03459852      5.01450623
C           4.26766394     -2.50953706      4.99898379
C           5.26189788     -3.36712035      4.27569518
C           5.63595145     -4.58967316      4.60625258
C           5.17271680     -5.35642380      5.81395747
C           6.31298542     -5.51061462      6.78232180
C           6.44728376     -4.85430738      7.91961508
C           5.47353806     -3.87144925      8.49130700
C           5.34131513     -4.02201655     10.00217937
C           4.32359117     -3.04005692     10.57047606
C           2.89227517     -3.46941612     10.27338040
C           1.87333956     -2.48132559     10.83295308
C           1.88153148     -1.11885907     10.14338956
C           1.35854327     -1.16365211      8.70708489
C           2.45368142     -1.44841075      7.69683198
O           3.58700135     -1.72864977      8.03721525
O           2.12498436     -1.37333570      6.44930233
H           8.16980372      0.04871601      6.98826615
H           8.99218259     -1.51116328      6.78274653
H           7.63172444     -1.36499972      7.91312971
H           6.92263424     -2.47199682      5.82379027
H           7.44454825     -1.06183897      4.88606226
H           5.85363817      0.35791173      6.13845822
H           5.30835717     -1.05744769      7.05483777
H           5.07096190     -0.76050592      4.03706352
H           3.77851052     -0.43666267      5.20861263
H           3.30291139     -2.59866707      4.49300559
H           4.14250649     -2.84747733      6.02836604
H           5.67084432     -2.90244130      3.38258302
H           6.37136941     -5.11628078      4.00534416
H           4.83826318     -6.34685676      5.49712845
H           4.33883706     -4.84174057      6.28918952
H           7.08886206     -6.19376010      6.45005204
H           7.32702337     -5.01116210      8.53762688
H           4.49524816     -3.99516124      8.02603827
H           5.82058501     -2.85719937      8.27569095
H           6.31726088     -3.84255848     10.45564039
H           5.02755133     -5.03993200     10.24022238
H           4.50508612     -2.05884792     10.12816766
H           4.44718636     -2.96596715     11.65188820
H           2.72232317     -4.44604112     10.72973235
H           2.75500924     -3.56847616      9.19674872
H           2.08899090     -2.33750332     11.89339477
H           0.87340140     -2.90837546     10.73820528
H           2.89843884     -0.72046545     10.13103302
H           1.25776268     -0.44314548     10.72879252
H           0.90828720     -0.20471216      8.44792157
H           0.58798687     -1.93068081      8.61726541
H           1.20139545     -1.14361962      6.32059951
          52
 Energy =    -62.37317212 a.u.  #Cluster:   10
C           3.10074324      1.30627504      6.16674603
C           4.30344009      0.58578511      5.57864501
C           4.06050051     -0.91350239      5.51937618
C           5.26438983     -1.66080137      4.96848838
C           5.00659721     -3.16607135      4.97932629
C           6.17413392     -3.93149599      4.43767582
C           7.01348650     -4.66499361      5.14582583
C           6.92523754     -4.88797132      6.63277926
C           6.05773652     -6.07922209      6.94849210
C           5.05118910     -6.06597949      7.80240098
C           4.64092029     -4.84575816      8.57062473
C           3.29337128     -4.95881398      9.26463461
C           2.97345951     -3.66038461     10.00092548
C           2.62206899     -2.53217020      9.03744382
C           2.52026715     -1.17222970      9.72327879
C           3.81207049     -0.68537264     10.37510263
C           4.95391731     -0.45465253      9.38115354
C           5.58947753     -1.75556932      8.93434658
O           5.62650553     -2.07425554      7.75906835
O           6.06150253     -2.53120234      9.85215079
H           2.22186573      1.12045309      5.54934597
H           3.28171030      2.37901913      6.21630995
H           2.90879582      0.93147540      7.17266623
H           5.18028967      0.77816818      6.19909642
H           4.49930180      0.95889920      4.57222605
H           3.18888149     -1.11899104      4.89551345
H           3.86164804     -1.27975928      6.52891592
H           6.13042662     -1.44241313      5.59649881
H           5.46944474     -1.32950572      3.94954374
H           4.12441628     -3.36825958      4.36834657
H           4.79185921     -3.46791881      6.00446966
H           6.31994341     -3.81993175      3.36700820
H           7.82407727     -5.19209594      4.65249763
H           6.52844873     -3.99600145      7.12082281
H           7.92870504     -5.07529763      7.02176848
H           6.32307188     -6.98251411      6.40773255
H           4.46611300     -6.96003121      7.99296244
H           4.59981456     -4.00818252      7.87235442
H           5.40389341     -4.61021304      9.31959636
H           3.32258437     -5.78587139      9.97548953
H           2.51513860     -5.15736125      8.52579863
H           3.85049259     -3.38237230     10.58802496
H           2.13558838     -3.81467801     10.68217404
H           1.66181842     -2.76011691      8.57178593
H           3.36647502     -2.47496030      8.24394439
H           1.74852382     -1.23084464     10.49311639
H           2.21293676     -0.43351722      8.98028878
H           4.14492868     -1.40602501     11.12421374
H           3.59622239      0.25380016     10.88592510
H           5.71806687      0.15107832      9.86892149
H           4.57633761      0.08064305      8.50991152
H           5.97826321     -2.16170818     10.73494225
          52
 Energy =    -62.37295883 a.u.  #Cluster:   11
C           1.29555353     -0.30107481      4.12059554
C           2.80276377     -0.38827783      4.30563592
C           3.28841183     -1.82301074      4.15284228
C           4.80765368     -1.92382323      4.21181533
C           5.35768568     -1.55373880      5.58677194
C           6.84588803     -1.71368744      5.62193347
C           7.54721803     -2.32036785      6.56122081
C           6.99068177     -2.96756756      7.79385408
C           7.66722546     -4.27597635      8.08128010
C           7.96975429     -4.74416529      9.27863668
C           7.65792602     -4.08261507     10.58617605
C           6.48042710     -4.77941602     11.27469402
C           5.18745386     -4.63786084     10.47896865
C           4.62485084     -3.22515382     10.53709502
C           3.36665708     -3.10154113      9.69234778
C           2.78063781     -1.69951565      9.77686290
C           1.46769532     -1.59435885      9.00869184
C           1.70707826     -1.72609930      7.51684802
O           2.83192122     -1.80316459      7.06067664
O           0.66378798     -1.74655217      6.75570349
H           0.80250453     -0.91205421      4.87788679
H           1.02382614     -0.67345590      3.13345328
H           0.95733037      0.72886238      4.21952636
H           3.06368960     -0.02234283      5.29972738
H           3.29879200      0.23823220      3.56255937
H           2.93987389     -2.21293047      3.19526868
H           2.86076413     -2.42659904      4.95650294
H           5.23952591     -1.25446871      3.46518954
H           5.10868588     -2.94634205      3.97836572
H           4.88330708     -2.18006728      6.34475581
H           5.10755182     -0.51195853      5.80120366
H           7.35093162     -1.27276515      4.76674821
H           8.62896076     -2.37665711      6.48205521
H           5.91868976     -3.14019957      7.66941583
H           7.11855397     -2.29277940      8.64387958
H           7.91082429     -4.85278535      7.19394496
H           8.44538962     -5.71614197      9.37443435
H           7.41136292     -3.03185506     10.43228817
H           8.52906421     -4.14308912     11.24039124
H           6.33449323     -4.34672655     12.26509304
H           6.72351177     -5.83716398     11.38572663
H           4.43994431     -5.32293289     10.88216351
H           5.37090498     -4.90572227      9.43666448
H           5.36620558     -2.51545398     10.16842657
H           4.38952308     -2.97312935     11.57311666
H           2.62792639     -3.82464673     10.04372155
H           3.61332653     -3.32731093      8.65267189
H           3.49570556     -0.99085939      9.35267596
H           2.61883822     -1.44805250     10.82608465
H           0.99549484     -0.63025480      9.20046618
H           0.78513493     -2.37993611      9.33532942
H          -0.15647113     -1.66969884      7.24924801
          52
 Energy =    -62.37292569 a.u.  #Cluster:   12
C           5.52458498      2.15609141      7.60823883
C           5.28904030      1.28337472      6.38605494
C           6.30134657      0.14907853      6.31929678
C           5.94999689     -0.82022413      5.20192131
C           6.91599684     -2.00533238      5.15592023
C           6.82079257     -2.83208849      6.40825749
C           5.83180916     -3.66376921      6.67811589
C           4.66664649     -3.95072803      5.77512474
C           4.55018580     -5.42655836      5.52283821
C           3.48487313     -6.18075477      5.72097913
C           2.16375701     -5.73536654      6.26818815
C           1.96216173     -6.29298189      7.67966553
C           2.94120791     -5.67602195      8.67248039
C           2.56005789     -4.24665815      9.02901429
C           3.58894865     -3.62147996      9.95971712
C           3.12855411     -2.27740114     10.51343160
C           2.76728597     -1.28221682      9.40817997
C           3.92378600     -1.11851950      8.44425279
O           3.82431991     -1.42716891      7.27107102
O           5.02400515     -0.64345671      8.92850862
H           5.43757010      1.54460367      8.50691988
H           4.79417486      2.96232882      7.65205084
H           6.52643007      2.58302093      7.56828441
H           5.36424465      1.88719811      5.48068949
H           4.28602534      0.85436573      6.43195611
H           6.29113998     -0.38631488      7.27180414
H           7.30122203      0.55499020      6.15812918
H           5.97007512     -0.29343027      4.24732380
H           4.93869681     -1.19109347      5.37968404
H           7.93124432     -1.62562752      5.03790512
H           6.66948487     -2.62204661      4.28985572
H           7.61665412     -2.68331176      7.13052551
H           5.81593491     -4.22135084      7.61006554
H           4.80543200     -3.43951255      4.82065390
H           3.75499882     -3.56916866      6.24057564
H           5.46375665     -5.87228035      5.13941602
H           3.53576393     -7.24641655      5.51401507
H           1.36359404     -6.10629176      5.62568325
H           2.10740438     -4.64742767      6.29931725
H           2.10594977     -7.37393508      7.64675547
H           0.94485504     -6.08368255      8.01206079
H           3.94570314     -5.68082170      8.24394700
H           2.95499036     -6.27008108      9.58752014
H           1.58381871     -4.24730710      9.51785251
H           2.49199263     -3.65378549      8.11607534
H           4.52790766     -3.49568960      9.41754507
H           3.76597135     -4.30372601     10.79306602
H           3.93061749     -1.84787724     11.11619776
H           2.25792743     -2.43426059     11.15212549
H           2.54130844     -0.31888106      9.86516515
H           1.89173613     -1.63136101      8.86182977
H           4.96908932     -0.45715147      9.86870877
          52
 Energy =    -62.37228126 a.u.  #Cluster:   13
C           5.79192218      0.89136011      5.96259025
C           7.16598994      0.34010060      6.31871166
C           7.10205316     -1.14375641      6.65810233
C           6.69052423     -1.99614301      5.46770815
C           6.52274241     -3.45718294      5.87890296
C           6.24459234     -4.31459855      4.68320121
C           5.11368266     -4.94271916      4.42017723
C           3.90814077     -4.96799329      5.32146403
C           4.01071666     -6.13186077      6.27172172
C           3.94846379     -6.07353745      7.58902893
C           3.74497352     -4.82814989      8.39263233
C           4.88879198     -4.59139908      9.38229919
C           5.02382750     -3.11039815      9.71960155
C           3.73888597     -2.53376691     10.29913290
C           3.84529832     -1.03895463     10.58718264
C           4.03602967     -0.17605201      9.34192882
C           2.90676966     -0.34254440      8.32190016
C           3.15529960     -1.55872662      7.45272936
O           4.26128186     -1.77921634      6.98929789
O           2.17958666     -2.37716887      7.24742621
H           5.46315708      0.50154086      5.00011056
H           5.82087426      1.97844378      5.90853407
H           5.07390280      0.58715623      6.72396031
H           7.55090676      0.88192642      7.18352345
H           7.84819903      0.49087222      5.48072989
H           6.36931417     -1.28683866      7.45490197
H           8.07517341     -1.48242390      7.01621060
H           7.44823315     -1.92229536      4.68591566
H           5.73841131     -1.63817752      5.07371212
H           5.70981054     -3.52098121      6.60259369
H           7.44492197     -3.79102988      6.35965315
H           7.06825138     -4.36008834      3.97599462
H           5.02112058     -5.54325546      3.52079952
H           3.00941819     -5.08737253      4.71270450
H           3.83196950     -4.02863299      5.87169096
H           4.17024099     -7.08411240      5.77373075
H           4.05610919     -6.97774669      8.18159389
H           2.80223216     -4.89514030      8.93858629
H           3.68922420     -3.97433474      7.71862237
H           5.82209577     -4.93291141      8.93189256
H           4.71071112     -5.16344334     10.29366130
H           5.28025168     -2.57728673      8.80304777
H           5.83351153     -2.96995621     10.43737415
H           3.51209773     -3.05610693     11.23024423
H           2.91299726     -2.70398814      9.60840209
H           4.68880664     -0.87214072     11.25943303
H           2.93185258     -0.71700202     11.09049527
H           4.97659522     -0.43345142      8.85041937
H           4.09244219      0.86610593      9.65696255
H           2.88295130      0.53368052      7.67337762
H           1.94910190     -0.42595732      8.83652176
H           1.36265014     -2.10249479      7.67235295
          52
 Energy =    -62.37203343 a.u.  #Cluster:   14
C           3.76207987      0.48435780      5.51338770
C           4.75901944     -0.48914421      4.90385933
C           5.83200627     -0.87073268      5.91255901
C           6.77374470     -1.92245926      5.34819838
C           7.74900365     -2.43644024      6.41058458
C           7.01905081     -3.06892111      7.56291796
C           6.54179807     -4.30099544      7.56843090
C           6.67075015     -5.28612684      6.44134157
C           5.41678523     -6.09183989      6.21514674
C           4.20140186     -5.59640857      6.06664559
C           3.81502325     -4.14978237      6.12689146
C           2.61525898     -3.93961454      7.04803438
C           2.91220713     -4.44349159      8.45448582
C           1.76703348     -4.15709286      9.42155979
C           1.70011660     -2.68243700      9.80851063
C           2.84471104     -2.28156174     10.74204892
C           3.41030038     -0.90283634     10.38561139
C           4.14909779     -1.00599103      9.06778623
O           3.55704781     -1.22666530      8.02537218
O           5.43444322     -0.89289726      9.08189505
H           4.27307011      1.40207679      5.80220105
H           3.32345222      0.03067229      6.40317153
H           2.97284958      0.72232479      4.80289104
H           5.22765479     -0.04048303      4.02644590
H           4.23556046     -1.39488821      4.59189870
H           5.34065682     -1.26927776      6.80319945
H           6.40060276      0.01582436      6.19875071
H           7.33367591     -1.49752285      4.51404938
H           6.18187046     -2.76016106      4.97700394
H           8.34633197     -1.59779633      6.77033946
H           8.41418613     -3.16799611      5.94969756
H           6.85012161     -2.42256317      8.41867596
H           6.01630826     -4.68214934      8.43834413
H           7.49114978     -5.97080621      6.66864463
H           6.92265704     -4.75761203      5.51998224
H           5.56795927     -7.16440614      6.15049927
H           3.36311680     -6.26545546      5.89084741
H           3.55699160     -3.80311069      5.12337604
H           4.64741277     -3.55097255      6.49351117
H           1.75258738     -4.47654441      6.65052986
H           2.38400504     -2.87452721      7.08611278
H           3.82286683     -3.96576689      8.82025500
H           3.08620856     -5.51953161      8.41207408
H           1.89980595     -4.74922190     10.32826093
H           0.83062204     -4.45174650      8.94531124
H           0.74579179     -2.47660181     10.29266684
H           1.75155876     -2.08153645      8.89875472
H           3.65405442     -3.01012508     10.66559056
H           2.49355096     -2.27684436     11.77417975
H           4.08589524     -0.56770325     11.17247080
H           2.58519587     -0.19654347     10.29151625
H           5.78975066     -0.71425226      9.95603725
          52
 Energy =    -62.37195525 a.u.  #Cluster:   15
C           5.41027050      2.17360787      6.52584373
C           4.92787098      0.86080536      5.92768029
C           5.97967209     -0.23021453      6.07045814
C           5.42481216     -1.58503972      5.65469971
C           6.40426898     -2.72378943      5.93432889
C           6.48664109     -3.03981720      7.39762747
C           6.51201544     -4.24334295      7.93884380
C           6.45275410     -5.55262828      7.20182888
C           5.47183141     -6.47291071      7.86999176
C           4.24837114     -6.73558595      7.44723785
C           3.60282491     -6.21241047      6.20113735
C           2.20462778     -5.65136167      6.46219424
C           2.22738275     -4.32278286      7.21223341
C           2.49907856     -4.48273206      8.70301006
C           2.40474895     -3.15024750      9.44008488
C           3.55809975     -2.23020887      9.07686008
C           3.48086039     -0.88136301      9.78055321
C           4.67051279     -0.03606305      9.36300185
O           5.72775600     -0.55543057      9.05901092
O           4.50969470      1.24379002      9.30213384
H           6.36134359      2.45607423      6.07600510
H           5.54533774      2.05422648      7.60201539
H           4.68253270      2.96360001      6.34841239
H           4.69671084      0.99951379      4.87045774
H           4.01722228      0.54476395      6.44034722
H           6.30003424     -0.27170092      7.11336057
H           6.84673963      0.01236476      5.45397596
H           5.19450494     -1.55783440      4.58878630
H           4.49898212     -1.77278568      6.20234553
H           7.39160992     -2.42620193      5.57121069
H           6.09067199     -3.61106184      5.38289928
H           6.51692741     -2.16876546      8.04616977
H           6.56967893     -4.35101830      9.01823549
H           7.44335808     -6.01408686      7.22110017
H           6.17329837     -5.38475329      6.16210558
H           5.82745654     -6.90074852      8.80232857
H           3.61127816     -7.40482494      8.01913361
H           3.51086390     -7.03632007      5.48892346
H           4.21545347     -5.43310759      5.74678306
H           1.62859259     -6.37792770      7.03811525
H           1.71295001     -5.50011709      5.50088343
H           1.25639205     -3.83692053      7.09782115
H           2.98556311     -3.67911284      6.76351137
H           3.49497240     -4.89840958      8.85876129
H           1.76485758     -5.17681500      9.11570157
H           2.42121515     -3.32742486     10.51673923
H           1.46225181     -2.66373998      9.18096984
H           3.55472512     -2.05632102      7.99931318
H           4.50254977     -2.70880301      9.34404942
H           3.50382136     -1.03269109     10.86082459
H           2.54972948     -0.37655016      9.52085819
H           3.62814623      1.52317112      9.56138383
          52
 Energy =    -62.37195371 a.u.  #Cluster:   16
C           5.12503035      1.64743395      5.50585550
C           6.16014920      0.54305224      5.65444678
C           5.82329425     -0.63118496      4.74511133
C           6.76209757     -1.81360155      4.96272291
C           6.44422830     -2.58652082      6.24669613
C           5.17770993     -3.37634559      6.10942407
C           5.09109597     -4.69331949      6.07719449
C           6.24668249     -5.64709843      6.20862497
C           5.86950134     -6.89920390      6.95322891
C           5.39043424     -6.91877378      8.18348887
C           5.09462573     -5.71902372      9.03130739
C           3.58268122     -5.56926158      9.20128691
C           3.21155903     -4.48996340     10.20858782
C           3.50503190     -3.08162006      9.70854600
C           2.91154192     -2.05915372     10.66947093
C           3.25687786     -0.61854433     10.31231537
C           2.78670021     -0.24643356      8.90717922
C           3.83369578     -0.64379858      7.88449347
O           4.99519360     -0.79000340      8.21544234
O           3.45273438     -0.80014953      6.65962723
H           5.11237812      2.00329575      4.47563441
H           5.35314042      2.48085444      6.16856138
H           4.13873273      1.25242768      5.75263648
H           6.18021490      0.20624813      6.69277305
H           7.14822654      0.92680199      5.39692824
H           5.89199304     -0.30024328      3.70784724
H           4.79472567     -0.94076949      4.93990755
H           7.78495131     -1.43769706      5.01497528
H           6.68696396     -2.50081061      4.11879209
H           6.33518931     -1.87709822      7.07141424
H           7.27658347     -3.25339478      6.47107305
H           4.28109368     -2.76993254      6.01090558
H           4.12655649     -5.17605235      5.95347818
H           7.06815477     -5.15162147      6.73160901
H           6.59969829     -5.91372893      5.21043582
H           6.01892199     -7.82879391      6.41460232
H           5.12960825     -7.86350994      8.65216372
H           5.50819793     -4.81677289      8.58165875
H           5.53888386     -5.85435137     10.02019266
H           3.18210531     -6.52590837      9.54122081
H           3.13491944     -5.32664254      8.23603040
H           3.75682575     -4.66250195     11.13843801
H           2.14207099     -4.55701610     10.41779292
H           3.05736251     -2.96135072      8.72058954
H           4.58208451     -2.92467963      9.62738531
H           3.28054991     -2.27445870     11.67387510
H           1.82564769     -2.17429803     10.66953387
H           4.34285767     -0.48906065     10.34834182
H           2.80122809      0.04315762     11.04876927
H           2.65138054      0.83340663      8.83531928
H           1.83418260     -0.72744630      8.68433664
H           2.51027281     -0.66406727      6.54211816
          52
 Energy =    -62.37182833 a.u.  #Cluster:   17
C           5.06186440     -0.45091155     10.76072034
C           6.40212008     -0.53049558     10.04504525
C           6.20541892     -0.39160567      8.54282906
C           7.47111842     -0.71693675      7.75494776
C           7.11802908     -1.26285637      6.36905199
C           6.23728040     -0.30312192      5.62984635
C           4.96010951     -0.50034122      5.36142454
C           4.18212262     -1.74180459      5.71473869
C           2.81912299     -1.71922969      5.09578614
C           1.66690500     -1.91026756      5.71128811
C           1.45223378     -2.26190574      7.15265168
C           0.67353808     -3.57559720      7.25690088
C           1.53233371     -4.75140154      6.80051932
C           2.54963833     -5.14432347      7.87239563
C           3.88547864     -5.54319161      7.26058697
C           4.89743925     -6.00419805      8.30635720
C           5.05822881     -5.00103425      9.45619217
C           5.27617146     -3.61328738      8.89669966
O           4.35005974     -2.82931887      8.77442558
O           6.47083296     -3.29760144      8.52641499
H           4.60196039      0.51860968     10.57214277
H           5.18805396     -0.58425798     11.83358723
H           4.40550231     -1.23215166     10.37420583
H           6.86415633     -1.49866441     10.24998612
H           7.06671401      0.25461536     10.40750202
H           5.86179479      0.61592527      8.30794727
H           5.42459349     -1.09550253      8.24740845
H           8.03503386     -1.47949567      8.29359400
H           8.09088525      0.17418822      7.65457027
H           6.60454549     -2.21734398      6.49878488
H           8.03775716     -1.43041300      5.80562193
H           6.71986485      0.62837339      5.34862164
H           4.38570286      0.25986661      4.84121298
H           4.10472647     -1.82697289      6.80148823
H           4.72755864     -2.61938823      5.35489905
H           2.82911666     -1.48968232      4.03364434
H           0.74158096     -1.85184384      5.14342790
H           0.87459663     -1.46893407      7.63197220
H           2.40520010     -2.36137807      7.67474044
H          -0.21558325     -3.49964730      6.62928327
H           0.36306450     -3.74018037      8.28895373
H           2.06426616     -4.45992588      5.89236366
H           0.89868430     -5.60573682      6.56359291
H           2.16308482     -5.96726648      8.47429961
H           2.70949246     -4.28756733      8.52869196
H           4.28724852     -4.68544896      6.71743155
H           3.72231242     -6.35126722      6.54587282
H           5.86669436     -6.13826841      7.82403202
H           4.57648933     -6.96255972      8.71728856
H           5.90843678     -5.30080586     10.06797032
H           4.15694455     -5.00246987     10.06836383
H           7.10683638     -4.00223118      8.66781028
          52
 Energy =    -62.37179070 a.u.  #Cluster:   18
C           8.91419111     -2.54869363      9.33655146
C           8.08463307     -1.27576807      9.28283772
C           7.36535052     -1.15557956      7.94772879
C           6.34306078     -0.03083349      7.96412292
C           5.53206912     -0.01391050      6.67045898
C           4.42479877      0.99016730      6.75441517
C           3.13441600      0.71197828      6.71917222
C           2.56632141     -0.66596372      6.50732526
C           2.64860267     -1.05222338      5.05397492
C           2.91913911     -2.25419089      4.58048897
C           3.12756376     -3.49691730      5.39078086
C           1.90256061     -4.40377534      5.27202667
C           2.07948252     -5.73900745      5.98632516
C           2.22019107     -5.58124544      7.50219638
C           3.67117099     -5.66172901      7.96131898
C           3.80907667     -5.34445883      9.44681167
C           3.64228182     -3.84687432      9.72473087
C           4.79251664     -3.11699285      9.06899801
O           4.67475125     -2.58273624      7.98182421
O           5.92839389     -3.13940650      9.68463444
H           8.24949453     -3.40741512      9.23565524
H           9.44857440     -2.62074496     10.28256254
H           9.63318022     -2.55717532      8.51774479
H           8.72373326     -0.40504816      9.43278248
H           7.33875116     -1.30408921     10.07966680
H           6.83824266     -2.09136148      7.74663770
H           8.08869291     -0.98487013      7.14937618
H           6.84710650      0.92752399      8.09632266
H           5.66315512     -0.18703564      8.80408228
H           5.12966202     -1.01396788      6.50517223
H           6.19831116      0.23513592      5.84186493
H           4.76295359      2.01241982      6.89853260
H           2.40252068      1.50955225      6.79386881
H           1.51911543     -0.67791248      6.81698708
H           3.10783525     -1.39331485      7.11635421
H           2.47062025     -0.22612145      4.37135994
H           2.94378170     -2.41831888      3.50663394
H           3.29345136     -3.24065830      6.43759480
H           3.99944136     -4.03909763      5.01855682
H           1.71361279     -4.58927575      4.21311883
H           1.03889965     -3.88744021      5.69517840
H           2.96746767     -6.23874574      5.59541474
H           1.21064138     -6.35906787      5.76362411
H           1.66009186     -6.36692066      8.01120794
H           1.79696505     -4.61971665      7.79730270
H           4.27716968     -4.96223843      7.38481708
H           4.03877909     -6.67092893      7.77036264
H           4.79888897     -5.64288395      9.79691799
H           3.05689466     -5.90908447     10.00000486
H           3.65317304     -3.67862230     10.80095213
H           2.69680156     -3.49802198      9.31024304
H           5.88810179     -3.60236859     10.52463165
          52
 Energy =    -62.37155659 a.u.  #Cluster:   19
C           5.97504812     -0.92714365     11.05558285
C           5.79298368     -0.30106023      9.68184777
C           7.13294275     -0.14430158      8.97441535
C           6.94985567      0.29686577      7.52605608
C           6.59569163     -0.89881203      6.63818680
C           6.04090509     -0.45443914      5.32008405
C           4.75417793     -0.39316612      5.02863244
C           3.63386263     -0.78924523      5.94208708
C           2.48750330     -1.42294766      5.20992967
C           1.55057057     -2.14377999      5.79652475
C           1.49429361     -2.43019104      7.26936656
C           0.58598546     -3.61362746      7.58065076
C           1.06969206     -4.92359283      6.96247318
C           2.37864718     -5.42789776      7.57577991
C           3.59945509     -5.09403041      6.72715942
C           4.88187686     -5.66257241      7.32708011
C           5.21373183     -5.08528089      8.70811765
C           5.42170588     -3.58800290      8.64324591
O           4.53705675     -2.83682358      8.27269065
O           6.57732193     -3.12230898      8.98560073
H           6.42060597     -1.91616156     10.94127338
H           5.01684818     -1.02368956     11.56403721
H           6.63905807     -0.30788863     11.65865333
H           5.32264448      0.67797533      9.78099383
H           5.13988187     -0.93907941      9.08249037
H           7.65221922     -1.10511875      8.98711394
H           7.73468360      0.58665917      9.51584424
H           7.86379684      0.75954667      7.15287743
H           6.14272370      1.03035063      7.48152906
H           5.85272700     -1.50234537      7.15998694
H           7.49154504     -1.50346515      6.48779376
H           6.78170028     -0.12458264      4.59792351
H           4.42856990     -0.02908840      4.05819922
H           3.26792838      0.10386014      6.46037366
H           3.99529845     -1.47782278      6.70946950
H           2.46108246     -1.23613144      4.14091202
H           0.73152144     -2.56016720      5.21813990
H           1.11433827     -1.54547126      7.78725737
H           2.49935371     -2.62421193      7.65127898
H          -0.41125241     -3.39314327      7.19550138
H           0.52069323     -3.74111661      8.66225880
H           1.20456181     -4.79050166      5.88795613
H           0.29137847     -5.67159559      7.11545672
H           2.33615718     -6.51242094      7.68799536
H           2.49229988     -4.98767777      8.56740274
H           3.69557374     -4.01332077      6.62621354
H           3.45954706     -5.51953315      5.73225596
H           5.71485414     -5.45579890      6.65299690
H           4.77217637     -6.74482174      7.41893866
H           6.11281304     -5.57109092      9.08799143
H           4.38951480     -5.29611486      9.38983488
H           7.19629103     -3.80468573      9.25490350
          52
 Energy =    -62.37155471 a.u.  #Cluster:   20
C           5.93723771     -0.93902929     11.08150700
C           5.77522226     -0.31525039      9.70421600
C           7.12526364     -0.16164973      9.01543294
C           6.96332877      0.26833686      7.56119884
C           6.62181186     -0.93473337      6.67853047
C           6.09497961     -0.50313557      5.34478476
C           4.81385661     -0.42927303      5.03220385
C           3.67501966     -0.79389025      5.93578571
C           2.52691585     -1.41738579      5.19771860
C           1.57169560     -2.11587273      5.78191669
C           1.49484792     -2.38335352      7.25736416
C           0.56632568     -3.54949769      7.57392393
C           1.04066327     -4.87343461      6.97905038
C           2.34665893     -5.37462885      7.60176399
C           3.56604881     -5.08195631      6.73608110
C           4.84239907     -5.66734586      7.33304762
C           5.18500453     -5.09936089      8.71529620
C           5.39153479     -3.60142761      8.66253788
O           4.50944429     -2.84843037      8.28963657
O           6.54325517     -3.13652855      9.01909577
H           6.38113359     -1.92964885     10.97479786
H           4.97212979     -1.03174256     11.57745822
H           6.59518032     -0.32069574     11.69212014
H           5.30465748      0.66448597      9.79473126
H           5.12979066     -0.95386691      9.09722221
H           7.64559835     -1.12157493      9.04274801
H           7.71807089      0.57406760      9.56026054
H           7.88291706      0.72753664      7.19769901
H           6.15719859      1.00161058      7.49896626
H           5.86584770     -1.52927911      7.19183850
H           7.51777055     -1.54481364      6.55286908
H           6.85150409     -0.19568723      4.62912972
H           4.50798185     -0.07703827      4.05106407
H           3.31841570      0.11225894      6.43765757
H           4.01486030     -1.47819388      6.71682480
H           2.51572107     -1.24275402      4.12638157
H           0.75248608     -2.52597046      5.19929183
H           1.12295278     -1.48674404      7.76039202
H           2.49274740     -2.58812418      7.65222588
H          -0.42353283     -3.32138855      7.17451106
H           0.48756297     -3.66127949      8.65636015
H           1.17699170     -4.75952320      5.90250494
H           0.25715730     -5.61338945      7.14404116
H           2.29180174     -6.45435296      7.74890555
H           2.47217554     -4.90373489      8.57772622
H           3.68267027     -4.00529748      6.61507244
H           3.40815583     -5.52198186      5.75019371
H           5.67624758     -5.46953170      6.65737409
H           4.71949794     -6.74836686      7.42259226
H           6.08734605     -5.58769587      9.08413955
H           4.36680838     -5.31629925      9.40233514
H           7.16076737     -3.82001645      9.28899861
          52
 Energy =    -62.37132235 a.u.  #Cluster:   21
C           6.14245735      2.06231206      7.77003946
C           5.60043688      2.00110811      6.34832871
C           5.47697123      0.56452223      5.85300923
C           6.83463037     -0.08036571      5.60769877
C           6.67622054     -1.55518270      5.24620154
C           6.10744656     -2.31670579      6.40346672
C           5.06232975     -3.12200560      6.39085070
C           4.22704759     -3.50201098      5.20136905
C           4.34804578     -4.97828302      4.94245452
C           3.48902069     -5.90201652      5.33220522
C           2.21592966     -5.67989099      6.09085076
C           2.20243234     -6.51067031      7.37479948
C           3.24736457     -6.02871627      8.37580134
C           2.82305755     -4.74231853      9.07031429
C           3.91199743     -4.25183914     10.01357385
C           3.48337012     -3.03906124     10.83476354
C           3.15324021     -1.81558097      9.98191591
C           4.35900996     -1.29976194      9.21850355
O           5.42094473     -1.89046416      9.21134288
O           4.18802358     -0.19701177      8.56281047
H           6.13519953      3.08824509      8.13375158
H           7.16344741      1.68472834      7.80244299
H           5.52029007      1.44570218      8.42036032
H           6.26351976      2.55416305      5.68097715
H           4.61618015      2.47089129      6.32729531
H           4.90846710      0.54665771      4.92185329
H           4.93329252     -0.01667730      6.60244035
H           7.44436388     -0.00693144      6.50942228
H           7.34221322      0.44636388      4.79871885
H           7.65512502     -1.96747396      4.99147597
H           6.02460212     -1.64205256      4.37552571
H           6.60900348     -2.12791356      7.35037248
H           4.75236917     -3.60532136      7.31172768
H           4.55391803     -2.94836273      4.32049766
H           3.18600520     -3.24748615      5.41000053
H           5.25541891     -5.26641226      4.42035793
H           3.68552693     -6.94817811      5.11216291
H           1.37231543     -5.98719424      5.46884402
H           2.09600613     -4.62571607      6.34078130
H           2.40205485     -7.55069928      7.11230617
H           1.21702067     -6.44885814      7.83803977
H           4.19306325     -5.85754789      7.85729352
H           3.40454417     -6.79625758      9.13518733
H           1.90762425     -4.92375260      9.63716977
H           2.62053294     -3.97983849      8.31753511
H           4.80020689     -3.99741316      9.43219807
H           4.16982257     -5.06359592     10.69601685
H           4.29210175     -2.77437218     11.51882392
H           2.60560490     -3.31093166     11.42371992
H           2.77893187     -1.01695473     10.62331694
H           2.36970048     -2.06085706      9.26427906
H           3.29916461      0.15243463      8.65631278
          52
 Energy =    -62.37121644 a.u.  #Cluster:   22
C           3.00164905     -2.68376100      3.91721867
C           4.26672905     -3.14041774      4.62754137
C           5.35002106     -2.07389285      4.54337411
C           6.68298204     -2.55811305      5.10067672
C           6.61619070     -2.86539668      6.59341808
C           7.96616051     -3.25510586      7.11458552
C           8.49423473     -2.91611724      8.27554066
C           7.81960095     -2.10846470      9.34965191
C           7.53282138     -2.99063697     10.53433904
C           6.35196797     -3.47780738     10.86775042
C           5.06601466     -3.24697866     10.13879290
C           4.57097858     -4.53445361      9.47958660
C           3.39405501     -4.25103269      8.55456788
C           2.10659049     -3.88373638      9.29975826
C           1.42027172     -2.68115026      8.65413736
C           2.08863273     -1.37050299      9.07555584
C           2.11551944     -0.34907454      7.94369030
C           3.18723184     -0.73405562      6.94116175
O           4.05315808     -1.54194154      7.21997532
O           3.14578706     -0.17803486      5.77607337
H           2.21149988     -3.42459637      4.02678106
H           3.20799618     -2.53535809      2.85755445
H           2.66822864     -1.73754981      4.34460368
H           4.63119521     -4.06084306      4.16874299
H           4.03817486     -3.34149894      5.67478964
H           5.02216801     -1.19475042      5.10285254
H           5.48409174     -1.79153922      3.49778095
H           7.43941245     -1.78913573      4.93543681
H           6.98452391     -3.46186270      4.56744292
H           5.92186621     -3.69315472      6.75677047
H           6.23060665     -1.99307517      7.12414614
H           8.53374445     -3.87346114      6.42426937
H           9.48561727     -3.26719852      8.54655165
H           6.89690871     -1.67286038      8.96784760
H           8.48701489     -1.30182576      9.66101863
H           8.41362889     -3.25330715     11.11253754
H           6.25996101     -4.13550725     11.72764449
H           5.19567472     -2.49239246      9.36132170
H           4.30671011     -2.89483215     10.83952188
H           4.27794710     -5.25052568     10.24853524
H           5.38613484     -4.96043644      8.89253982
H           3.21331158     -5.11827265      7.91976825
H           3.68079952     -3.41623339      7.91117094
H           2.33895688     -3.63248148     10.33571078
H           1.42955090     -4.73787895      9.30129843
H           0.36742444     -2.65714787      8.93515463
H           1.48116951     -2.79102714      7.56996791
H           3.12543925     -1.57314816      9.35089916
H           1.57753179     -0.96394548      9.94764291
H           2.35265776      0.64061065      8.33580569
H           1.14477418     -0.30067475      7.45017367
H           2.42298481      0.44802447      5.68650002
          52
 Energy =    -62.37114097 a.u.  #Cluster:   23
C           4.00744040     -0.10295091      3.10849293
C           5.04601428      0.00195201      4.21388422
C           5.78210197     -1.31723894      4.39886384
C           6.69032088     -1.26459124      5.61775825
C           7.42874466     -2.58796733      5.83048766
C           6.47756889     -3.67262585      6.24475966
C           6.10400419     -3.90459547      7.48969114
C           6.59079477     -3.15557909      8.69764571
C           6.85316311     -4.09063198      9.84027550
C           6.25652365     -4.07617683     11.01845991
C           5.17802780     -3.13600452     11.46181806
C           3.86412954     -3.89477377     11.67129677
C           3.32326529     -4.49671556     10.37209412
C           2.26086076     -3.62998147      9.70362144
C           2.78129673     -2.26240580      9.28347301
C           1.77004023     -1.50726867      8.42491054
C           1.66014525     -2.09198549      7.01945958
C           2.93328085     -1.84054101      6.23612173
O           3.85821755     -1.21217097      6.71607624
O           2.98784992     -2.31560994      5.03563903
H           3.47966106      0.84133439      2.98556315
H           3.29065721     -0.88393118      3.36556014
H           4.49396362     -0.36571757      2.16946498
H           4.55226646      0.25743848      5.15395479
H           5.76455990      0.78698152      3.97503445
H           6.37358429     -1.53715063      3.50861984
H           5.04511293     -2.11227791      4.53252153
H           6.07696050     -1.05120812      6.49605629
H           7.41400447     -0.45912297      5.48759872
H           8.18376379     -2.44554245      6.60558295
H           7.92757868     -2.86254308      4.90015420
H           6.05517570     -4.25684394      5.43356191
H           5.38703954     -4.68850918      7.71463837
H           5.83526006     -2.42070590      8.98317315
H           7.50960534     -2.61894334      8.45059675
H           7.60817209     -4.84175317      9.62591719
H           6.51918148     -4.82225998     11.76384713
H           5.03140225     -2.34884208     10.72430044
H           5.46791672     -2.67562419     12.40835996
H           3.11864021     -3.21978337     12.09257022
H           4.05295476     -4.69254775     12.39089048
H           2.87919705     -5.46988741     10.58372884
H           4.14913207     -4.64567645      9.67369453
H           1.42600189     -3.49201928     10.39369157
H           1.89355629     -4.15732206      8.82160349
H           3.70656961     -2.37908373      8.71714132
H           2.99581805     -1.67478180     10.17602632
H           2.08938270     -0.46703616      8.33277558
H           0.79799634     -1.53509942      8.91893807
H           0.82759384     -1.63074125      6.48747760
H           1.47499497     -3.16546571      7.06781591
H           2.19440373     -2.79686425      4.78991401
          52
 Energy =    -62.37111416 a.u.  #Cluster:   24
C           8.16899642     -2.42469337      9.97301480
C           7.02211930     -1.48956497      9.61990573
C           6.76307528     -1.47240189      8.12048116
C           5.70737935     -0.44218928      7.75165990
C           5.50069836     -0.37934590      6.24156945
C           4.52506621      0.69559786      5.87690100
C           3.42700529      0.55294398      5.15631014
C           2.94943747     -0.72105765      4.51981443
C           1.47650672     -0.96216165      4.73242053
C           0.87974649     -1.03038027      5.90907074
C           1.54602091     -0.89241467      7.24516499
C           1.70867372     -2.25286352      7.92529693
C           2.69002216     -3.12991736      7.16398556
C           3.01431370     -4.40637807      7.92314398
C           4.08826680     -5.20020959      7.19279729
C           4.48758434     -6.48048128      7.92022614
C           4.94165572     -6.24076675      9.36743887
C           5.96825218     -5.13025906      9.43177952
O           5.64388654     -3.97246803      9.22274418
O           7.19294493     -5.43188083      9.68994467
H           7.90594398     -3.44434956      9.68932710
H           8.36844215     -2.39583581     11.04287167
H           9.06716446     -2.12589230      9.43371610
H           7.26272335     -0.47760254      9.94924567
H           6.11682480     -1.81902436     10.13296424
H           6.42827997     -2.46343082      7.80603533
H           7.69086842     -1.23301572      7.59705641
H           6.02552713      0.53864196      8.11058289
H           4.76379960     -0.70221412      8.23446733
H           5.15157662     -1.35230952      5.89370724
H           6.46486041     -0.16954353      5.77120376
H           4.77909672      1.66948896      6.28681195
H           2.78486103      1.40833474      4.96845729
H           3.51042310     -1.56560594      4.92334065
H           3.14811913     -0.67012954      3.44730703
H           0.89397744     -1.09159594      3.82639177
H          -0.18604694     -1.23428896      5.96286178
H           0.93931259     -0.24826506      7.88393395
H           2.53396532     -0.44536537      7.13438358
H           0.73993232     -2.75159902      7.98322582
H           2.08681031     -2.10137720      8.93731385
H           3.61789696     -2.57356671      7.01772213
H           2.28124675     -3.38309064      6.18443109
H           2.11358303     -5.01134248      8.03623087
H           3.38326370     -4.13020771      8.91278756
H           4.96260245     -4.55729076      7.07279917
H           3.71952304     -5.46036473      6.19948167
H           5.30216676     -6.95571337      7.37159519
H           3.63530202     -7.16189215      7.93171456
H           5.35074809     -7.16787602      9.76840011
H           4.07823968     -5.94775846      9.96502871
H           7.33417268     -6.37027349      9.83798811
          52
 Energy =    -62.37105719 a.u.  #Cluster:   25
C           7.41998322     -2.04913908      9.97185249
C           7.05012433     -1.18331019      8.77661309
C           6.17172848     -1.94402555      7.79211025
C           5.97576549     -1.18465395      6.48614236
C           5.17667235      0.10208431      6.67111948
C           5.08745346      0.85162795      5.37680011
C           4.00653187      1.37898865      4.83406641
C           2.61544669      1.32783953      5.40151938
C           1.75508194      0.43413181      4.55215656
C           1.21244639     -0.70874779      4.92842061
C           1.33748070     -1.34793605      6.27598156
C           2.18315853     -2.61707104      6.20373527
C           2.34678273     -3.22847396      7.58447057
C           3.18855960     -4.49393945      7.54766289
C           3.37611607     -5.04886478      8.95189188
C           4.19077756     -6.33978182      8.98676458
C           5.59719949     -6.17760834      8.41181841
C           6.37522110     -5.09696374      9.13561244
O           5.95565307     -4.57297521     10.14945224
O           7.49559164     -4.72817617      8.60257544
H           6.51739794     -2.41704907     10.46057713
H           8.01340616     -1.48243942     10.68652491
H           7.99032352     -2.91518553      9.63423146
H           7.96198026     -0.86679517      8.26682469
H           6.52352586     -0.29446518      9.12585162
H           5.19828606     -2.13725710      8.24641524
H           6.64814994     -2.90139746      7.57097361
H           5.44945882     -1.82476349      5.77606490
H           6.95515001     -0.93514313      6.07301836
H           5.68455988      0.72869608      7.40833403
H           4.18467596     -0.14281225      7.05117230
H           6.04335711      0.94146736      4.86714266
H           4.07045699      1.88123959      3.87320911
H           2.19458732      2.33625443      5.39256708
H           2.63942868      0.97051048      6.42985459
H           1.62351954      0.79183891      3.53504902
H           0.63324676     -1.29166547      4.21749695
H           0.34681158     -1.61491127      6.65054840
H           1.80353619     -0.66368011      6.98572278
H           3.16864983     -2.37344807      5.80256781
H           1.70242794     -3.33773727      5.54012029
H           1.36236168     -3.46055620      7.99553307
H           2.83305834     -2.50083680      8.23792666
H           4.15801375     -4.25286392      7.10937162
H           2.69778124     -5.24079776      6.92075346
H           2.39202134     -5.24354771      9.38141139
H           3.87224798     -4.29398122      9.56539773
H           3.65927914     -7.10809080      8.42312309
H           4.27813318     -6.66625378     10.02482535
H           5.54406579     -5.92218093      7.35321860
H           6.13671532     -7.12106098      8.50104576
H           7.71120551     -5.22386927      7.80893195
          52
 Energy =    -62.37105070 a.u.  #Cluster:   26
C           6.03440839      2.61014316      6.80621586
C           5.71508300      1.42223468      5.91250674
C           6.54256923      0.20612268      6.30711435
C           6.04032046     -1.04717634      5.60378287
C           6.88839013     -2.27769643      5.92929834
C           6.77596651     -2.68070352      7.36833087
C           6.36679697     -3.86032321      7.79614070
C           5.94232345     -4.99898559      6.90604780
C           5.47070793     -6.17079541      7.70935666
C           4.33473418     -6.82720958      7.55282201
C           3.28858162     -6.57601198      6.51151472
C           1.89927836     -6.35835202      7.11572334
C           1.74480805     -4.97407792      7.73858372
C           2.41145031     -4.85851947      9.10353574
C           2.33892518     -3.43673817      9.65080887
C           3.20066648     -2.48493320      8.83632997
C           3.27092886     -1.08727102      9.44225812
C           3.93264622     -0.16733094      8.43466661
O           3.63259514     -0.24378336      7.25644035
O           4.83495421      0.65531659      8.84883611
H           7.09828763      2.83942769      6.75231793
H           5.77662072      2.35485292      7.83516957
H           5.46335146      3.48544144      6.50102308
H           5.91175917      1.67361464      4.86988396
H           4.65688335      1.17083342      6.01862182
H           6.47264053      0.07510230      7.38886008
H           7.58943665      0.37424726      6.04828876
H           6.06471926     -0.87515776      4.52674406
H           5.00555461     -1.22673507      5.90384865
H           7.93143022     -2.03848734      5.70595552
H           6.57700395     -3.10443903      5.29068733
H           7.06533609     -1.91379694      8.07996444
H           6.32719970     -4.07525608      8.85906978
H           6.79627330     -5.30373657      6.29351799
H           5.15540181     -4.65966419      6.22967928
H           6.15458891     -6.45941252      8.50255070
H           4.09528789     -7.65302453      8.21736983
H           3.24426052     -7.44851843      5.85548075
H           3.54891387     -5.70588241      5.90710146
H           1.71278949     -7.11991235      7.87482633
H           1.15956207     -6.46800284      6.32239641
H           0.68327227     -4.74919756      7.85701549
H           2.17552286     -4.23932627      7.05647979
H           3.46057979     -5.14533600      9.02744157
H           1.91552530     -5.54267165      9.79405426
H           2.69281887     -3.43003099     10.68316942
H           1.30287758     -3.09333398      9.63439668
H           2.79591326     -2.38832675      7.82577875
H           4.21037830     -2.89339000      8.76660602
H           3.82257100     -1.10522287     10.38210321
H           2.25678633     -0.73312199      9.63427739
H           4.98055756      0.61027472      9.79635844
          52
 Energy =    -62.37104775 a.u.  #Cluster:   27
C           6.04755639      2.58298106      6.80323256
C           5.75309663      1.38923823      5.90879448
C           6.60130434      0.18856826      6.30635333
C           6.13072221     -1.07134156      5.59310948
C           7.00307665     -2.28455817      5.92163941
C           6.88990129     -2.68665745      7.36097616
C           6.39412017     -3.83198556      7.79043880
C           5.86608446     -4.92749855      6.90257459
C           5.43354453     -6.11820341      7.70052783
C           4.30795333     -6.79496311      7.55556684
C           3.23993971     -6.54970588      6.53524016
C           1.85724848     -6.36153815      7.16421241
C           1.69088988     -4.98456777      7.80004713
C           2.37157171     -4.87087914      9.15836870
C           2.33077510     -3.44318182      9.69359030
C           3.22392540     -2.52216547      8.87768043
C           3.30609998     -1.11332055      9.45490931
C           3.99294481     -0.22314539      8.43715259
O           3.71618869     -0.32853906      7.25554156
O           4.88867095      0.60785876      8.84875400
H           7.10682825      2.83303694      6.75100123
H           5.79332833      2.32266462      7.83179196
H           5.45998688      3.44697375      6.49721051
H           5.94890089      1.64405559      4.86681904
H           4.69947301      1.11804458      6.01103502
H           6.52396869      0.05122547      7.38682236
H           7.64684579      0.37898357      6.05782071
H           6.15969508     -0.89437713      4.51700723
H           5.09796116     -1.27417782      5.88518591
H           8.04147439     -2.02418286      5.70186907
H           6.70889046     -3.11753310      5.28292316
H           7.24904715     -1.94778012      8.07045515
H           6.35268852     -4.04780322      8.85312576
H           6.65432648     -5.22800409      6.20560856
H           5.03194521     -4.54564130      6.31019130
H           6.13934600     -6.40604234      8.47450109
H           4.09666636     -7.63467706      8.21211125
H           3.19947039     -7.41538175      5.87000214
H           3.47613499     -5.66868725      5.93668531
H           1.69652560     -7.13188630      7.92028551
H           1.10637647     -6.47774260      6.38240269
H           0.62809127     -4.77351938      7.93129200
H           2.10501599     -4.23921454      7.11906923
H           3.41454221     -5.17767746      9.07523784
H           1.86973509     -5.54051291      9.85865595
H           2.67567370     -3.43577701     10.72893596
H           1.30407642     -3.07353638      9.66447220
H           2.84051338     -2.44040707      7.85740622
H           4.22767465     -2.94858186      8.83618059
H           3.84519292     -1.11831197     10.40215002
H           2.29475294     -0.74085228      9.62606456
H           5.01508585      0.58626845      9.79984089
          52
 Energy =    -62.37101741 a.u.  #Cluster:   28
C           7.60292354     -1.00511524      7.06420326
C           6.78577851     -0.32006752      8.14722718
C           5.30711583     -0.31114007      7.79364486
C           4.48721291      0.39834519      8.86113290
C           2.99105305      0.35397938      8.54161341
C           2.69400783      1.10059939      7.27621911
C           2.42807751      0.56468393      6.09941140
C           2.36588040     -0.89956180      5.77379956
C           3.21912066     -1.20720642      4.57531598
C           3.97013532     -2.27968166      4.41216279
C           4.12110254     -3.40575116      5.38969471
C           5.50498028     -4.04044877      5.30520636
C           5.67880352     -5.11499659      6.37264254
C           5.88976723     -4.49845956      7.75501888
C           5.25086221     -5.34440122      8.84738802
C           5.36212131     -4.71066362     10.23160380
C           4.82267357     -3.27457762     10.26536910
C           3.49710677     -3.19407422      9.53186195
O           3.41785223     -2.65347650      8.44348269
O           2.47520281     -3.74445584     10.09553406
H           7.26016698     -2.03255664      6.94302192
H           8.65991579     -1.01248392      7.32657111
H           7.47381257     -0.47957322      6.11797162
H           7.13053150      0.70800552      8.27042735
H           6.91889670     -0.84821899      9.09304638
H           4.95582035     -1.34155526      7.70788663
H           5.16857844      0.18679296      6.83231918
H           4.81007734      1.43876123      8.93069948
H           4.66512454     -0.08777483      9.82141235
H           2.43849521      0.80567249      9.36685614
H           2.68800032     -0.68929848      8.44491330
H           2.74019783      2.18145022      7.37742043
H           2.24093164      1.20507839      5.24155081
H           1.32965789     -1.16054224      5.53447706
H           2.67956703     -1.50184267      6.62650453
H           3.17142601     -0.44988321      3.79785733
H           4.54035215     -2.40978918      3.49650364
H           3.37289910     -4.17449948      5.17607524
H           3.94610202     -3.04163932      6.40390535
H           6.26536359     -3.27100048      5.44813091
H           5.63059604     -4.47626795      4.31308438
H           6.52269487     -5.75804829      6.12279662
H           4.77438370     -5.72665448      6.39056359
H           5.43237718     -3.50903276      7.76352898
H           6.95475772     -4.37877186      7.95548315
H           5.72847716     -6.32516079      8.86363117
H           4.19572427     -5.48496432      8.60332028
H           6.40675960     -4.70680330     10.54598252
H           4.78773408     -5.31344863     10.93638656
H           5.53293367     -2.60366017      9.78331798
H           4.69590168     -2.97024810     11.30376449
H           2.69081716     -4.13567650     10.94687187
          52
 Energy =    -62.37096806 a.u.  #Cluster:   29
C           1.88710494      0.08593898      5.78368117
C           3.37815717     -0.21312652      5.82463127
C           3.75153462     -1.28556717      4.80895941
C           5.26196133     -1.46699799      4.69051528
C           5.92184944     -1.98908277      5.96745811
C           5.64439955     -3.44126666      6.20624393
C           6.53436969     -4.36156763      6.53056591
C           8.00769692     -4.13945675      6.74354592
C           8.44474255     -4.67409667      8.08135798
C           8.29412440     -4.03412866      9.22722445
C           7.62345767     -2.70404911      9.38412864
C           6.16150943     -2.90243450      9.78523346
C           5.41416983     -1.57872321      9.81096485
C           3.93277741     -1.75784848     10.12314087
C           3.26198345     -2.68075211      9.11422221
C           1.74636732     -2.54703407      9.12828202
C           1.09633872     -3.64201333      8.27369143
C           1.74639128     -3.61620460      6.90595169
O           1.40449644     -2.82138938      6.05195780
O           2.74212897     -4.41972364      6.71180232
H           1.61527164      0.46858289      4.80072379
H           1.62389804      0.82232733      6.54038730
H           1.33292654     -0.83507741      5.96824994
H           3.64703011     -0.54797826      6.82720065
H           3.93855129      0.69694619      5.60312740
H           3.36375876     -0.98673586      3.83328724
H           3.27495892     -2.22800375      5.08768479
H           5.69885431     -0.49739812      4.44569366
H           5.47817780     -2.16006738      3.87615226
H           5.55169328     -1.41188332      6.81805770
H           6.99731356     -1.82579894      5.89718662
H           4.59987516     -3.72366789      6.09942294
H           6.22043854     -5.39035899      6.68256754
H           8.23211651     -3.07356557      6.68421638
H           8.55885172     -4.65395745      5.95382664
H           8.88921968     -5.66357860      8.06291660
H           8.61126053     -4.49684525     10.15684033
H           7.64987017     -2.15203825      8.44302430
H           8.12419181     -2.11256824     10.15230605
H           6.11372804     -3.37169432     10.76903151
H           5.69558510     -3.56648122      9.05682934
H           5.50698283     -1.11033636      8.82859806
H           5.87187929     -0.92228697     10.55274764
H           3.44271398     -0.78326892     10.08621215
H           3.81632985     -2.16886189     11.12715270
H           3.52269169     -3.71772533      9.33072830
H           3.63556235     -2.43323260      8.11926579
H           1.46770932     -1.56885046      8.73267007
H           1.38705109     -2.62389706     10.15562885
H           0.02693599     -3.45258866      8.18849116
H           1.26148424     -4.60766467      8.75166801
H           2.91644833     -4.98764293      7.46644612
          52
 Energy =    -62.37095730 a.u.  #Cluster:   30
C           5.60790410      2.35666732      6.11958675
C           4.89775212      1.02343479      5.94603506
C           5.88976912     -0.13048981      5.96126520
C           5.17669913     -1.46794528      5.82818730
C           6.13921798     -2.65240953      5.92431697
C           6.55776654     -2.91381998      7.33984495
C           6.61039921     -4.08836716      7.94197248
C           6.26060052     -5.41753595      7.33681298
C           5.12072664     -6.04649598      8.08814645
C           3.93480028     -6.35294616      7.59525350
C           3.47059197     -6.12337371      6.19015486
C           2.27128236     -5.17389913      6.14977945
C           2.58522138     -3.83980309      6.83234501
C           1.96138423     -3.74747040      8.21921551
C           2.42061992     -2.49610714      8.96229225
C           3.76412198     -2.71455898      9.64137578
C           4.26271799     -1.44242073     10.33657927
C           4.72632779     -0.45667193      9.28457785
O           5.88275160     -0.44420030      8.90605930
O           3.83996808      0.32603276      8.76352510
H           6.32490823      2.49955879      5.31105599
H           6.14314624      2.36425090      7.06927569
H           4.89123978      3.17660846      6.10845013
H           4.35142122      1.01679603      5.00173866
H           4.18448934      0.88497543      6.76246120
H           6.43957072     -0.10166897      6.90422586
H           6.59880789     -0.01493964      5.13957487
H           4.66806112     -1.49636121      4.86357428
H           4.42489073     -1.55254959      6.61428942
H           7.02103072     -2.42816079      5.31827631
H           5.65612566     -3.53893247      5.51306953
H           6.81547635     -2.02035830      7.90217472
H           6.91036111     -4.14848866      8.98424951
H           7.13086975     -6.07548874      7.40896279
H           6.00438241     -5.29828924      6.28521903
H           5.34012286     -6.23447018      9.13528773
H           3.18161542     -6.79865606      8.23929803
H           3.18010282     -7.07615334      5.74266688
H           4.27360976     -5.68978040      5.59366935
H           1.42691076     -5.64195555      6.65782125
H           1.99878333     -5.00854093      5.10789053
H           2.20588938     -3.01215596      6.23215273
H           3.66669058     -3.72644878      6.91503292
H           2.23734559     -4.62618749      8.80449176
H           0.87625007     -3.73494943      8.10822992
H           1.68778860     -2.22554528      9.72382440
H           2.49921522     -1.67340174      8.24912380
H           4.50295574     -3.02543256      8.90123739
H           3.65734302     -3.51234276     10.37854230
H           5.10270805     -1.69207360     10.98450284
H           3.45042940     -1.02468600     10.93135129
H           2.97134171      0.23034232      9.16070740
          52
 Energy =    -62.37088172 a.u.  #Cluster:   31
C           2.58064285      0.24900941      6.57993927
C           4.08559347      0.46360810      6.58780983
C           4.80175839     -0.69960105      5.92118069
C           6.31368954     -0.54158914      5.97762150
C           7.00917495     -1.81519467      5.50054195
C           6.81345961     -2.92655982      6.48656904
C           6.34021224     -4.13084960      6.22896940
C           5.88453701     -4.62523642      4.88143078
C           4.79868483     -5.65339672      5.03362601
C           3.52362270     -5.37814752      5.23900809
C           2.92064000     -4.01082704      5.34641377
C           2.21620649     -3.83620274      6.69119639
C           3.20083113     -3.84770666      7.85130988
C           2.47053346     -3.84260148      9.18724149
C           3.43437616     -3.74918509     10.37560225
C           3.35646037     -2.40510239     11.09438628
C           3.73783508     -1.22658650     10.19652433
C           5.16958643     -1.37148895      9.72009096
O           5.42159751     -1.56773809      8.54552229
O           6.09868697     -1.29845571     10.61308413
H           2.07105286      1.08248268      7.06115828
H           2.34183027     -0.66998697      7.11593814
H           2.22639729      0.15836488      5.55312886
H           4.43397341      0.54321692      7.61900907
H           4.32909688      1.38846081      6.06310844
H           4.47987557     -0.78487361      4.88224225
H           4.52782787     -1.61666503      6.44601818
H           6.60615121     -0.34670656      7.01176479
H           6.61434943      0.30344222      5.35808151
H           8.07856785     -1.62020642      5.39409627
H           6.60850581     -2.09457039      4.52526046
H           7.07235597     -2.65528803      7.50715971
H           6.24563669     -4.86170405      7.02620720
H           6.73336033     -5.06855206      4.35629022
H           5.52345284     -3.78189362      4.29010320
H           5.13284075     -6.68529969      5.00363333
H           2.80577012     -6.18446423      5.36314089
H           2.18733937     -3.87887868      4.54767468
H           3.68760298     -3.24377722      5.24602854
H           1.50138365     -4.65074855      6.82432998
H           1.67395535     -2.88990819      6.69892228
H           3.84757808     -2.96997189      7.78594755
H           3.82458172     -4.74164338      7.79055844
H           1.88025655     -4.75732557      9.25519643
H           1.78178074     -2.99610088      9.20895636
H           4.45295809     -3.91074441     10.01887968
H           3.20325634     -4.53207125     11.09800017
H           4.03833198     -2.41715987     11.94688924
H           2.33966134     -2.26120984     11.46342375
H           3.63582291     -0.30401128     10.76760881
H           3.07412948     -1.18716957      9.33306412
H           5.75037474     -1.14205318     11.49568417
          52
 Energy =    -62.37069522 a.u.  #Cluster:   32
C           9.54093418     -2.74309887      8.51385057
C           9.28915645     -2.20819113      7.11084618
C           8.30084109     -1.04749001      7.10916720
C           6.90749364     -1.47600914      7.54326881
C           5.91468757     -0.32279774      7.43303650
C           4.58437196     -0.72066846      7.99206852
C           3.41682740     -0.65592929      7.38210509
C           3.17165790     -0.18942335      5.97302142
C           2.98356995     -1.38319064      5.07163239
C           1.84401086     -2.02842767      4.89590321
C           0.52841607     -1.68106832      5.52091225
C          -0.08883615     -2.85650303      6.28266594
C           0.68230175     -3.20624010      7.55237369
C           1.89078235     -4.09218177      7.28546190
C           2.74317799     -4.26516023      8.53415828
C           3.82661061     -5.31036525      8.31343270
C           4.84283948     -5.31114433      9.46005815
C           5.69536635     -4.06998073      9.31579340
O           5.32964662     -2.99206349      9.74820418
O           6.79326093     -4.18297183      8.64471840
H           9.85697665     -1.93035785      9.16722627
H          10.31867904     -3.50457853      8.49090782
H           8.62902180     -3.18672544      8.91359352
H           8.89634585     -3.01043286      6.48390164
H          10.23493049     -1.86858401      6.68650354
H           8.23719943     -0.63191569      6.10192846
H           8.65958938     -0.26749336      7.78365037
H           6.92797919     -1.81478866      8.58088318
H           6.57495815     -2.30699090      6.91789675
H           5.82566308     -0.02087697      6.38889564
H           6.30961834      0.52070429      8.00582864
H           4.64521082     -1.13054273      8.99724073
H           2.52289663     -1.00424171      7.88982366
H           4.01535085      0.40286926      5.61982555
H           2.27397210      0.43054119      5.95461396
H           3.88835512     -1.73322731      4.58564270
H           1.80416902     -2.89147146      4.23726229
H          -0.16569778     -1.38920196      4.72883012
H           0.64331172     -0.84203230      6.20776129
H          -0.11912687     -3.73081356      5.63037396
H          -1.11035117     -2.58632651      6.55093131
H           0.02202042     -3.72964581      8.24582073
H           1.01390113     -2.28300758      8.03222185
H           2.50640007     -3.65571113      6.49862668
H           1.54703501     -5.07227679      6.94886394
H           2.10708586     -4.57603138      9.36515460
H           3.20301869     -3.30833678      8.79266141
H           4.35162212     -5.09704911      7.37966817
H           3.35949109     -6.29263990      8.22926309
H           5.46191847     -6.20567728      9.40200387
H           4.30638316     -5.29483164     10.40870766
H           6.96287589     -5.07913256      8.34531264
          52
 Energy =    -62.37062082 a.u.  #Cluster:   33
C           6.89369803     -2.12965699     10.83550401
C           6.39569639     -0.92293289     10.05493758
C           6.77426760     -1.05125254      8.58757328
C           6.11338135      0.01238693      7.72467435
C           6.24293949     -0.33973495      6.24214219
C           5.35877767      0.53072761      5.40386156
C           4.26567194      0.15192094      4.76731355
C           3.67475870     -1.23283786      4.73331907
C           2.22076163     -1.18634263      5.12610711
C           1.77195878     -1.20549966      6.36784099
C           2.61617986     -1.31529503      7.59977312
C           2.17122410     -2.47714057      8.48521056
C           2.25361448     -3.80302343      7.72937178
C           2.62418792     -4.95342196      8.65694250
C           2.91315351     -6.24880762      7.89453705
C           4.40139419     -6.51587464      7.69079519
C           5.09482906     -5.50838767      6.77154816
C           5.42017899     -4.19444568      7.45336000
O           5.09381914     -3.12791873      6.96305934
O           6.07101774     -4.23659227      8.56636571
H           6.49164009     -3.03703409     10.38203315
H           6.57669156     -2.07543916     11.87540054
H           7.98173308     -2.17139595     10.79478997
H           6.82087692     -0.00785235     10.46947200
H           5.30822128     -0.86688001     10.13328246
H           6.43699392     -2.02944754      8.23780689
H           7.85811779     -0.99895425      8.47640977
H           6.56037535      0.98844010      7.91776730
H           5.05424374      0.05902379      7.98259640
H           5.96612149     -1.38761814      6.11773696
H           7.28431893     -0.21723040      5.93849912
H           5.66843514      1.57179312      5.36881107
H           3.68962001      0.87884355      4.20111782
H           4.22003967     -1.89781726      5.40439287
H           3.75656409     -1.62530736      3.71737540
H           1.52673442     -1.08416026      4.29799847
H           0.70453827     -1.15330293      6.56458768
H           2.54705786     -0.38550430      8.16834293
H           3.65845603     -1.47823322      7.32512382
H           1.15179930     -2.30610540      8.83208742
H           2.82949632     -2.52146822      9.35415621
H           3.00657563     -3.71336938      6.94579245
H           1.29899830     -4.02298238      7.25041703
H           1.79803667     -5.10924471      9.35185549
H           3.50573835     -4.67827710      9.24016022
H           2.42209455     -6.20417792      6.92089617
H           2.49801677     -7.09198465      8.44751417
H           4.51368460     -7.51322443      7.26341322
H           4.90246266     -6.50309643      8.66179433
H           4.46910750     -5.31434403      5.89965198
H           6.03832653     -5.94268883      6.43808485
H           6.28277250     -5.13046799      8.84683184
          52
 Energy =    -62.37046066 a.u.  #Cluster:   34
C           3.74874520     -0.04960782      3.27412648
C           3.52077611     -0.30835244      4.75640433
C           4.83269962     -0.40957751      5.52595225
C           5.61504057     -1.66309344      5.16420763
C           6.83939943     -1.82463608      6.06462316
C           7.55847825     -3.10497762      5.75365377
C           7.32835889     -4.26653816      6.33708075
C           6.32389711     -4.50229031      7.43149842
C           5.54337491     -5.76339613      7.19122690
C           4.27616870     -5.83850867      6.82651930
C           3.35666795     -4.67902676      6.58731149
C           2.39160822     -4.46705519      7.75581946
C           3.15215782     -4.22175747      9.05434909
C           2.33234918     -3.41052083     10.04610496
C           3.08216757     -3.16847085     11.35233035
C           4.35988441     -2.34718577     11.19151959
C           4.10586000     -0.95769800     10.60491417
C           4.29909567     -0.92776858      9.09956526
O           4.90817153     -1.80093887      8.51091885
O           3.81200706      0.08355129      8.46247780
H           4.32694235      0.86555956      3.14524995
H           2.79516068      0.05816611      2.75920113
H           4.29709476     -0.87793427      2.82697256
H           2.96673762     -1.24051089      4.87983972
H           2.92543124      0.50742301      5.16883524
H           4.61639511     -0.43856491      6.59656752
H           5.44414091      0.47055053      5.31913740
H           5.93677890     -1.61969439      4.12303307
H           4.96716014     -2.53191552      5.29494302
H           6.50092515     -1.81879784      7.10290605
H           7.50512299     -0.97448687      5.90967180
H           8.28783437     -3.03473719      4.95220903
H           7.88073227     -5.15381463      6.04201040
H           5.65092039     -3.65007372      7.50594608
H           6.85613662     -4.60308854      8.38176805
H           6.12493146     -6.67148158      7.32167494
H           3.81017158     -6.81150944      6.69790185
H           2.78063474     -4.85696911      5.67797498
H           3.93665019     -3.76480515      6.45556927
H           1.74344014     -5.33776298      7.86126014
H           1.77145378     -3.59587392      7.53955850
H           4.05899385     -3.66442010      8.81911999
H           3.44037959     -5.17057733      9.50847658
H           1.40810968     -3.94822930     10.26414040
H           2.06928088     -2.45336780      9.59204447
H           3.34158630     -4.13561329     11.78648391
H           2.42064730     -2.64362241     12.04380195
H           5.05838447     -2.87252282     10.53484329
H           4.82340838     -2.25295480     12.17353858
H           4.81410586     -0.24430613     11.02845679
H           3.09967859     -0.62072080     10.85548525
H           3.36166987      0.70936739      9.03568026
          52
 Energy =    -62.37029710 a.u.  #Cluster:   35
C           7.00797217     -0.33107850     11.65163314
C           6.19494761      0.05793348     10.42708472
C           6.89156610     -0.37582497      9.14661270
C           6.06712116     -0.01765127      7.91924063
C           6.67393379     -0.63375577      6.65765554
C           6.08720966     -0.06073392      5.39752126
C           4.84492956     -0.24494741      4.98830316
C           3.81465911     -1.05266482      5.71089777
C           2.91594962     -1.83562929      4.79788135
C           1.87489563     -2.50989510      5.24872335
C           1.48786557     -2.54066320      6.69994878
C           0.43419759     -3.60008344      6.99575200
C           0.91681454     -5.02464166      6.73152271
C           2.04861609     -5.45456711      7.66826380
C           3.42193728     -5.35099063      7.01558351
C           4.53657382     -5.75561692      7.97485926
C           4.71384340     -4.74730677      9.11560368
C           5.11138572     -3.41450049      8.52301772
O           4.28633648     -2.55338936      8.27824211
O           6.35927018     -3.24592022      8.23487615
H           7.14275147     -1.41259538     11.67452787
H           6.50158835     -0.01662496     12.56309947
H           7.98813845      0.14382837     11.60723878
H           6.05634455      1.14014370     10.40864641
H           5.21291804     -0.41586098     10.47604681
H           7.04306254     -1.45774884      9.16585090
H           7.86859387      0.10625665      9.08140821
H           6.02430373      1.06762326      7.81614816
H           5.05460500     -0.40134306      8.05542789
H           6.50314033     -1.71375177      6.69557980
H           7.74978893     -0.45532776      6.67118514
H           6.75806654      0.56374849      4.81623173
H           4.49524970      0.21463688      4.06853795
H           3.19472593     -0.38285006      6.31619771
H           4.30361076     -1.74418677      6.40365686
H           3.17187129     -1.81706110      3.74404996
H           1.22896106     -3.06585426      4.57725568
H           1.09411476     -1.55866203      6.97734196
H           2.37577892     -2.71524793      7.31421831
H          -0.43814559     -3.40476510      6.36946009
H           0.13515025     -3.52304636      8.04225221
H           1.25675956     -5.10819960      5.69818040
H           0.06649141     -5.69427527      6.86274298
H           1.90004914     -6.49158364      7.97310707
H           2.02020580     -4.83109977      8.56299220
H           3.59283380     -4.33040509      6.67304237
H           3.44217991     -6.01095697      6.14692204
H           5.48008239     -5.81885041      7.42990262
H           4.30518022     -6.73786491      8.39020155
H           5.49011838     -5.10688359      9.79011879
H           3.77758042     -4.64233532      9.66275771
H           6.90411188     -4.00260181      8.46280233
          52
 Energy =    -62.36997351 a.u.  #Cluster:   36
C           4.42990445      1.96875685      5.97478782
C           4.48587900      0.63468500      5.24889309
C           5.69301692     -0.17623111      5.69239169
C           5.73946035     -1.52851696      4.99785099
C           6.95409976     -2.34564472      5.44623421
C           6.85173165     -2.68001827      6.90438727
C           6.20436116     -3.72945170      7.37844139
C           5.52391629     -4.76733235      6.52882064
C           5.26037004     -6.02195669      7.30193094
C           4.09443283     -6.62559850      7.44576793
C           2.78101597     -6.17977582      6.87798168
C           1.88226652     -5.62515738      7.98701816
C           2.41752852     -4.30046995      8.52197763
C           2.10575717     -3.14385755      7.57610543
C           3.04131108     -1.96310853      7.79725848
C           2.92253860     -1.36676037      9.19392183
C           4.04219386     -0.35768684      9.43316572
C           5.36447074     -1.10535368      9.43365639
O           5.40930962     -2.27516733      9.76777519
O           6.41460526     -0.47570797      9.02066176
H           5.33154168      2.54274514      5.76090801
H           4.37171471      1.79445102      7.04977531
H           3.55900040      2.54195035      5.66018720
H           4.54127293      0.80320324      4.17228156
H           3.58030630      0.06536032      5.46601625
H           5.63981178     -0.32437685      6.77228722
H           6.60567501      0.37792089      5.46410717
H           5.78375281     -1.37280879      3.91904582
H           4.82970656     -2.08300337      5.23376289
H           7.85625587     -1.76311128      5.25470938
H           6.99434762     -3.26609105      4.86073035
H           7.29010275     -1.96061813      7.58988919
H           6.11904128     -3.87179029      8.45137709
H           6.16193220     -4.99406113      5.66910800
H           4.58842109     -4.35473549      6.14543883
H           6.14363423     -6.43250737      7.78317973
H           4.02552452     -7.52093219      8.05768515
H           2.28282854     -7.03088423      6.41136327
H           2.93108834     -5.40861634      6.12192325
H           1.83812590     -6.35786541      8.79394731
H           0.87570473     -5.46860938      7.59829705
H           3.49971073     -4.37886450      8.64633777
H           1.97532643     -4.09806040      9.49719098
H           1.07137763     -2.82674331      7.71690057
H           2.22604511     -3.48688680      6.54738508
H           2.83224166     -1.18697800      7.05932349
H           4.06489895     -2.31105111      7.64852937
H           3.02859273     -2.16178309      9.93501374
H           1.94509972     -0.89892441      9.31313071
H           3.90449558      0.13833074     10.39405419
H           4.04182091      0.39667970      8.64571049
H           6.23217513      0.44067130      8.79751756
          52
 Energy =    -62.36992025 a.u.  #Cluster:   37
C           6.45456318     -0.47736995      6.32493331
C           5.14597734     -0.67174271      5.57374442
C           5.27222574     -1.65906837      4.41591556
C           5.79179242     -3.03058788      4.83875244
C           4.92777469     -3.66824664      5.92748907
C           5.36848110     -5.07399220      6.20972878
C           6.35944109     -5.40438742      7.01721281
C           7.19365029     -4.44470411      7.81345193
C           7.17243873     -4.79459422      9.27425649
C           7.08479202     -3.93978704     10.27617708
C           6.98221342     -2.44859426     10.16712600
C           5.61970426     -1.96258900     10.66113916
C           4.50626506     -2.45840462      9.75148134
C           3.14777291     -1.93870215     10.19904366
C           2.01876733     -2.44941934      9.31038273
C           2.09912073     -1.86076680      7.91113446
C           1.00346936     -2.37960148      6.98886410
C           1.36428149     -2.09228748      5.53870808
O           2.52904250     -2.01070007      5.19865916
O           0.39465068     -1.95693653      4.69816749
H           6.34882044      0.31770635      7.06146923
H           7.24789896     -0.21229222      5.62622914
H           6.73080006     -1.39432779      6.84360130
H           4.81949030      0.28952166      5.17478242
H           4.38396720     -1.02862568      6.26716753
H           5.94983417     -1.24456064      3.66793946
H           4.28485254     -1.78410177      3.96567199
H           6.81328719     -2.93883179      5.20906874
H           5.79889265     -3.68570099      3.96618503
H           3.88613769     -3.65693039      5.60281338
H           5.01071229     -3.07077340      6.83554512
H           4.83722423     -5.84465255      5.65997255
H           6.62708238     -6.44696063      7.16253715
H           6.84471923     -3.42396385      7.66300720
H           8.22591378     -4.50582505      7.45484584
H           7.23876593     -5.86105969      9.47032583
H           7.06009064     -4.30693911     11.29860322
H           7.11002810     -2.12978559      9.13230351
H           7.76570435     -1.99003024     10.77328829
H           5.60596794     -0.87207945     10.67586425
H           5.45034207     -2.32979092     11.67485733
H           4.49053649     -3.55012550      9.75411559
H           4.71255924     -2.11913728      8.73523940
H           3.15677522     -0.84728576     10.17230325
H           2.97455085     -2.25994889     11.22755081
H           1.05721471     -2.18259097      9.75192240
H           2.08203971     -3.53737937      9.24446888
H           3.05904337     -2.12669899      7.46432129
H           2.04130146     -0.77261458      7.97358560
H           0.04171206     -1.93417178      7.24275277
H           0.92419983     -3.46203794      7.10757210
H          -0.46823723     -2.05187475      5.11126968
          52
 Energy =    -62.36980561 a.u.  #Cluster:   38
C           7.47305383      1.04252383      9.35646140
C           6.69084817     -0.09239746      8.71477932
C           5.37178210      0.40288154      8.13927553
C           4.57264256     -0.75051874      7.55673440
C           3.23288140     -0.29610367      6.98011021
C           2.41393344     -1.48805872      6.59182696
C           2.21315473     -1.90935678      5.35647064
C           2.74418585     -1.21939572      4.12424097
C           4.25071331     -1.12644558      4.10581597
C           5.06359626     -2.16595942      4.16001000
C           4.63296349     -3.59250406      4.30834088
C           4.86503362     -4.05918047      5.74425652
C           4.43112503     -5.50238562      5.94788601
C           4.67418692     -5.95438378      7.38407516
C           3.68769202     -5.30762586      8.34788031
C           4.02750367     -5.57424543      9.81251242
C           5.33984066     -4.92458004     10.25084059
C           5.29020183     -3.41474169     10.11070748
O           4.28020971     -2.84087026      9.75078396
O           6.37814086     -2.76573714     10.36565480
H           6.88611424      1.48336077     10.16245197
H           7.68134269      1.81165478      8.61238660
H           8.41514041      0.67597396      9.76196323
H           6.48872191     -0.86516900      9.46151451
H           7.28307771     -0.53651730      7.91300211
H           5.56901961      1.14066677      7.35878270
H           4.78849517      0.88118148      8.92893998
H           4.38198248     -1.47939601      8.34879849
H           5.15750230     -1.23224183      6.77214023
H           3.40923202      0.35021256      6.11927423
H           2.70734579      0.27757876      7.74670359
H           2.01543551     -2.04891865      7.43168351
H           1.63227340     -2.80712037      5.17663141
H           2.32851644     -0.21156294      4.07446418
H           2.41287171     -1.76904734      3.24149848
H           4.65547748     -0.12284871      4.03652909
H           6.13935062     -2.01943539      4.15464121
H           5.21347846     -4.22965001      3.63806294
H           3.57507844     -3.70120667      4.06578185
H           4.29837362     -3.41295916      6.41511092
H           5.92572145     -3.96433205      5.98321736
H           4.99505829     -6.13795421      5.26321029
H           3.36836411     -5.59459874      5.71597910
H           5.69384638     -5.68135496      7.66052932
H           4.57579247     -7.03884764      7.45334303
H           2.69024716     -5.69691845      8.13790579
H           3.67010739     -4.22896463      8.18449016
H           4.08638112     -6.65229554      9.97041062
H           3.22465580     -5.17310394     10.43423132
H           6.16773961     -5.30374602      9.65085863
H           5.54046336     -5.17621383     11.29265966
H           7.10126122     -3.33886533     10.63227339
          52
 Energy =    -62.36978704 a.u.  #Cluster:   39
C          10.15740598     -2.37940053      9.66394896
C           9.09982566     -1.29099623      9.57127713
C           8.21663257     -1.48698379      8.34893384
C           7.13836772     -0.41784653      8.26673350
C           6.22717535     -0.65065458      7.07019413
C           5.15857184      0.39660798      6.97220696
C           3.95909960      0.21709706      6.45107531
C           3.46331215     -1.06638315      5.85791316
C           1.98248362     -1.25145251      6.03409590
C           1.27555629     -2.20176852      5.45080159
C           1.81639665     -3.22158124      4.49442077
C           1.34535046     -4.64014364      4.82020672
C           2.16429769     -5.29067700      5.92945883
C           2.00877376     -4.59378303      7.27266260
C           2.76351463     -5.33572642      8.36763555
C           2.72142613     -4.57428862      9.69867495
C           4.11097716     -4.15336800     10.17040559
C           4.77521367     -3.19207052      9.20196576
O           4.34853240     -3.00588984      8.08043533
O           5.83753578     -2.58866785      9.62806464
H           9.67513301     -3.35454183      9.73343937
H          10.78471385     -2.22986229     10.54155628
H          10.78331464     -2.35995744      8.77172013
H           9.58395144     -0.31504593      9.50932031
H           8.47598571     -1.31254752     10.46653808
H           7.73362584     -2.46486212      8.40964598
H           8.82907328     -1.45444206      7.44615617
H           7.60503379      0.56519474      8.18553933
H           6.54308602     -0.45035067      9.18168951
H           5.77035359     -1.64015754      7.16037214
H           6.83292891     -0.64103218      6.15995544
H           5.44598567      1.36638285      7.36803051
H           3.24695864      1.03622133      6.41530087
H           3.98319039     -1.90933659      6.32348203
H           3.70687600     -1.08555380      4.79176036
H           1.50802600     -0.54640677      6.70938607
H           0.20836585     -2.28618555      5.63397047
H           2.90656475     -3.19938202      4.49210622
H           1.46473117     -2.96446152      3.49207511
H           1.43093843     -5.25467809      3.92367843
H           0.29632552     -4.60609402      5.11989726
H           3.21897637     -5.28101198      5.64670747
H           1.84726463     -6.32944943      6.04083240
H           0.95086948     -4.53635238      7.53432125
H           2.41252406     -3.58273294      7.21173580
H           3.80047940     -5.45361078      8.04826590
H           2.33019099     -6.32935161      8.48415743
H           2.25907773     -5.19285272     10.46769016
H           2.11206219     -3.67718158      9.57418629
H           4.74622464     -5.03576347     10.26328185
H           4.04258449     -3.67946330     11.15021693
H           6.06758304     -2.83074133     10.52802076
          52
 Energy =    -62.36967627 a.u.  #Cluster:   40
C           7.75382699      0.97058707      7.78926460
C           7.28105211     -0.47485639      7.75202556
C           6.25670786     -0.77526642      8.84050648
C           4.96971872      0.03373726      8.71392565
C           4.28893972     -0.18667082      7.36441894
C           2.89179165      0.35187390      7.37595373
C           1.81061324     -0.32624528      7.03750410
C           1.82956158     -1.74649705      6.53153148
C           2.34585169     -1.78589250      5.11811704
C           3.31566645     -2.54821673      4.64837621
C           4.11664233     -3.55966881      5.40991454
C           5.61300121     -3.32094647      5.22831069
C           6.47358247     -4.44543815      5.79685776
C           6.37973795     -4.56737574      7.31976234
C           5.35330184     -5.60352924      7.76193751
C           5.29537998     -5.76695755      9.27926487
C           5.01791401     -4.44847740     10.01511170
C           3.85342990     -3.73765400      9.35752200
O           4.05163852     -2.91881107      8.47728799
O           2.66122348     -4.06414579      9.72278575
H           8.13880225      1.20659177      8.78159078
H           6.92825921      1.64392877      7.56147300
H           8.54398188      1.12651342      7.05606140
H           8.13904101     -1.13335152      7.89317159
H           6.84543180     -0.68943502      6.77557391
H           6.70687559     -0.57856642      9.81486515
H           5.99219710     -1.83322686      8.78648126
H           5.17769041      1.09613440      8.84400393
H           4.28688255     -0.28202437      9.50452018
H           4.27931309     -1.25419413      7.14807785
H           4.86336135      0.31896703      6.58580660
H           2.81473047      1.37950523      7.71939998
H           0.83462967      0.14629402      7.07143824
H           0.81588405     -2.15111442      6.54942007
H           2.45875328     -2.35950173      7.18087453
H           1.84190845     -1.08638813      4.45651662
H           3.60107514     -2.46991301      3.60219441
H           3.87767999     -4.55948438      5.03821232
H           3.86790471     -3.51076247      6.46905037
H           5.88501868     -2.38362731      5.71744951
H           5.82030398     -3.22720981      4.16048081
H           7.50907356     -4.24829877      5.51729150
H           6.16932143     -5.39089569      5.34397150
H           6.11353985     -3.59220927      7.72954661
H           7.35004635     -4.85684945      7.72577138
H           5.61706995     -6.56512173      7.31826552
H           4.36759861     -5.32254471      7.39292259
H           6.24439663     -6.17481575      9.63091869
H           4.50055226     -6.47314400      9.52362686
H           5.89897111     -3.81007793      9.95740011
H           4.79973280     -4.66685416     11.05988563
H           2.65483453     -4.72664804     10.41948066
          52
 Energy =    -62.36955626 a.u.  #Cluster:   41
C           6.01090088     -0.16604177     11.72237564
C           5.97688157      0.48851968     10.35037220
C           6.44612182     -0.47571556      9.27202606
C           6.37431351      0.15652636      7.89112675
C           6.84691159     -0.82331941      6.81513426
C           6.41201753     -0.39484297      5.44278115
C           5.16490022     -0.47672738      5.01436679
C           4.02250850     -1.00492823      5.82473894
C           3.01866181     -1.77548357      5.01813522
C           2.00969320     -2.41374798      5.58101540
C           1.78276002     -2.42250573      7.06584572
C           0.61528722     -3.30856132      7.48106105
C           0.80276318     -4.78129217      7.12246555
C           2.01383687     -5.41637649      7.80974551
C           3.22630558     -5.49514842      6.88950897
C           4.43158741     -6.12099672      7.58349408
C           4.97571671     -5.23857638      8.71140235
C           5.41263322     -3.91317141      8.13122216
O           4.72303576     -2.91221697      8.22833771
O           6.53161210     -3.88429368      7.49126787
H           5.35956562     -1.04008566     11.72800085
H           5.67544016      0.53195478     12.48805905
H           7.02778800     -0.48437746     11.95206185
H           6.62224633      1.36852157     10.34858723
H           4.95772773      0.80575105     10.12283020
H           5.80722031     -1.36253341      9.27919548
H           7.47299675     -0.78246989      9.47883479
H           6.98953567      1.05738573      7.86733860
H           5.33915309      0.43752915      7.69240747
H           6.41110273     -1.80155865      7.03843719
H           7.93215849     -0.91221637      6.86310020
H           7.18521863      0.02154768      4.80548952
H           4.89701003     -0.14175252      4.01675301
H           3.50744047     -0.16593023      6.30553417
H           4.39831978     -1.64415364      6.62997305
H           3.16301815     -1.76891674      3.94303008
H           1.28303059     -2.95580244      4.98561782
H           1.58750569     -1.39826618      7.39579446
H           2.69630808     -2.75019411      7.57178306
H          -0.28967587     -2.94426267      6.99158768
H           0.48161360     -3.22940299      8.56113174
H           0.91436636     -4.88287963      6.04201612
H          -0.10218724     -5.31240898      7.41859382
H           1.76737756     -6.43048612      8.12777346
H           2.26193327     -4.83285270      8.69727545
H           3.48852236     -4.49756222      6.53738090
H           2.96135716     -6.10331025      6.02302789
H           5.23074530     -6.26914217      6.85503932
H           4.14191151     -7.09190677      7.98872884
H           5.82447854     -5.74059500      9.17472020
H           4.20084740     -5.07288209      9.45911796
H           6.98337857     -4.73207475      7.47767324
          52
 Energy =    -62.36954922 a.u.  #Cluster:   42
C           7.20113970     -0.29088076      4.79324181
C           7.48225504     -1.70866946      4.32284427
C           6.98606989     -2.72663572      5.33716431
C           7.28200736     -4.15142814      4.89459352
C           6.84002137     -5.15461410      5.95602537
C           5.35558160     -5.11225652      6.15195725
C           4.73453285     -5.06143048      7.31482184
C           5.40531112     -5.02886968      8.66267038
C           4.47653972     -4.46017076      9.69016812
C           4.62348859     -3.32242348     10.34305590
C           5.74208170     -2.33549834     10.20135677
C           5.21099380     -1.07321527      9.51772240
C           4.91910772     -1.33736581      8.04559405
C           3.92231289     -0.33319510      7.48343628
C           3.38024078     -0.74286118      6.11817733
C           2.59203470     -2.05074962      6.12197656
C           1.44068086     -2.06176946      7.14095148
C           1.91845762     -2.65006860      8.45608668
O           2.32819192     -1.95075026      9.36344791
O           1.91363445     -3.94105723      8.54453446
H           7.69459433     -0.11681822      5.74947988
H           6.12729216     -0.15750041      4.92536142
H           7.56306017      0.43514146      4.06665167
H           8.55652451     -1.84019068      4.18277713
H           6.98344075     -1.88313217      3.36819220
H           5.90920645     -2.60471619      5.46769665
H           7.47417564     -2.54178585      6.29636830
H           8.35371972     -4.25391866      4.71922388
H           6.75227102     -4.35469674      3.96224972
H           7.34911783     -4.92567167      6.89335902
H           7.13111710     -6.15938582      5.64096410
H           4.78428281     -5.12839279      5.22805988
H           3.65011091     -5.04173021      7.35896732
H           6.32130141     -4.43899983      8.60503752
H           5.67705864     -6.04998249      8.94597993
H           3.57174789     -5.04416281      9.83454385
H           3.83118542     -2.98812827     11.00821390
H           6.55415744     -2.74932767      9.60283028
H           6.12631171     -2.07560878     11.18908793
H           5.92892600     -0.25948785      9.61389136
H           4.28058250     -0.78415344     10.01145894
H           4.50556393     -2.34163303      7.94817797
H           5.84473850     -1.29702921      7.47238335
H           4.40594028      0.64061313      7.39765507
H           3.09038259     -0.23913900      8.18445100
H           4.21868013     -0.84670795      5.42685862
H           2.72731243      0.05214882      5.75386940
H           3.25756261     -2.88756755      6.33950174
H           2.18763616     -2.19829350      5.12013451
H           0.62802653     -2.67467135      6.75202735
H           1.08160146     -1.04378097      7.29182588
H           1.54913646     -4.36377016      7.76278989
          52
 Energy =    -62.36948097 a.u.  #Cluster:   43
C           7.40990669      1.70623681      6.97875248
C           6.83325170      0.36595793      6.54785805
C           5.80815547      0.55771120      5.43832843
C           5.07236567     -0.72162206      5.05255260
C           5.91747077     -1.69001357      4.21516731
C           7.06865078     -2.30311657      4.95950434
C           6.93722224     -3.30153092      5.81544232
C           5.62369762     -3.93856764      6.14522800
C           5.72051456     -5.13553656      7.04021009
C           4.64806172     -5.71549231      7.54747915
C           3.25907356     -5.22321405      7.25757027
C           2.19246502     -5.96540011      8.05197092
C           2.28141824     -5.71459265      9.56031768
C           1.32921689     -4.62506805     10.05078378
C           1.69900993     -3.21326477      9.60646099
C           3.00398840     -2.74486752     10.23661052
C           3.32669338     -1.30100645      9.86402500
C           3.76711951     -1.19301243      8.41797958
O           3.68470729     -2.12871382      7.64774311
O           4.25600505     -0.05720785      8.03750108
H           6.60982037      2.35057388      7.34344163
H           7.89001358      2.18937835      6.12770918
H           8.14470429      1.56852550      7.77063612
H           6.34675423     -0.10809092      7.40242820
H           7.64386868     -0.27575609      6.20591669
H           6.30289225      0.96819131      4.55592209
H           5.07086776      1.28340087      5.78823384
H           4.19825617     -0.45092499      4.45916951
H           4.72494638     -1.21902510      5.96014077
H           6.28739837     -1.15112913      3.34166506
H           5.25784167     -2.49273151      3.87594365
H           8.04724050     -1.88423135      4.75230967
H           7.79982058     -3.71219282      6.33056555
H           5.11316810     -4.21945592      5.21697546
H           4.97970912     -3.19652270      6.63094385
H           6.72130523     -5.49847398      7.24956478
H           4.72221567     -6.58462657      8.19221143
H           3.06065378     -5.33872993      6.18847210
H           3.21353854     -4.15428055      7.48070802
H           2.31301047     -7.03233708      7.85823876
H           1.20465569     -5.66361297      7.70075358
H           3.30676174     -5.45370444      9.82472079
H           2.02433821     -6.63500132     10.08523692
H           1.31556565     -4.64094693     11.14251019
H           0.32607435     -4.85979191      9.69008545
H           0.90257061     -2.53250747      9.91241977
H           1.78337986     -3.17448312      8.52023481
H           3.82299218     -3.38161020      9.89687169
H           2.91975529     -2.83594067     11.32076932
H           4.12736190     -0.92023912     10.49904019
H           2.44500678     -0.67703760     10.01724641
H           4.26094656      0.59840352      8.73942895
          52
 Energy =    -62.36947001 a.u.  #Cluster:   44
C           4.66790437     -2.06693785      4.50609268
C           6.17093665     -2.03358783      4.73052773
C           6.58167515     -3.04373326      5.78995677
C           8.07768309     -2.99720563      6.06119795
C           8.45964249     -3.91375051      7.22489756
C           8.14179848     -5.34095804      6.90065031
C           7.18729349     -6.07215243      7.44724997
C           6.22716703     -5.61218877      8.50522539
C           4.92546591     -5.17780503      7.88370728
C           4.13146199     -4.23770064      8.36061254
C           4.38861493     -3.44681119      9.61369928
C           5.30734118     -2.24520294      9.36554948
C           4.66733541     -1.17212713      8.49076594
C           3.64404792     -0.34908470      9.26354406
C           3.03909750      0.77522191      8.42615772
C           2.28517938      0.31378237      7.18192545
C           1.10653984     -0.61529565      7.49750066
C           1.60808838     -2.02826030      7.69606582
O           1.61773138     -2.56654274      8.78824678
O           2.09909631     -2.62509652      6.65967928
H           4.15689303     -1.83728115      5.44136531
H           4.36477335     -3.06105649      4.17793106
H           4.37329045     -1.33695010      3.75381704
H           6.46698531     -1.03554347      5.05802211
H           6.68716192     -2.26126433      3.79659994
H           6.29940730     -4.04572405      5.46099431
H           6.04716635     -2.82074272      6.71398447
H           8.36098627     -1.97236595      6.30463501
H           8.61709899     -3.30725148      5.16463784
H           7.91128174     -3.59181302      8.11098684
H           9.52918252     -3.81277805      7.41815766
H           8.76086207     -5.76238323      6.11335296
H           7.01953049     -7.08779312      7.10211740
H           6.65383022     -4.78810897      9.07617141
H           6.02792828     -6.43836383      9.19305969
H           4.66262171     -5.71290893      6.97642155
H           3.21260602     -3.98965610      7.83746639
H           4.86240216     -4.09048266     10.35612351
H           3.43693829     -3.09207855     10.01310053
H           6.21696696     -2.60604710      8.88483522
H           5.57715578     -1.79951599     10.32412518
H           4.20000170     -1.64532321      7.62652650
H           5.44531526     -0.49866606      8.12716256
H           4.14630895      0.09726231     10.12389315
H           2.85074016     -0.99659801      9.63794852
H           3.84557598      1.44022290      8.11088201
H           2.35037093      1.34240861      9.05507067
H           2.96427409     -0.20937207      6.50668747
H           1.91345098      1.20070427      6.66750681
H           0.41261982     -0.59944890      6.65747156
H           0.59654139     -0.26919551      8.39677781
H           2.02197390     -2.10552565      5.85582108
          52
 Energy =    -62.36944917 a.u.  #Cluster:   45
C           8.32495495      2.71621854      4.69499447
C           6.95675129      2.12280691      4.99076967
C           7.04346489      0.61790414      5.19467113
C           5.67426226      0.02439849      5.49051235
C           5.73399722     -1.48316960      5.69256265
C           6.46413353     -1.87378666      6.94663551
C           6.49973888     -3.10936448      7.40811901
C           5.80760577     -4.25525738      6.72533502
C           5.56978631     -5.41451922      7.64288358
C           4.40666140     -6.01843379      7.79961776
C           3.14178638     -5.62493336      7.08864922
C           1.92219514     -6.37297865      7.61680725
C           1.62527016     -6.11011584      9.09514319
C           0.64769809     -4.96177995      9.33940627
C           1.18843309     -3.57629744      9.00025832
C           2.41044170     -3.21987546      9.83673281
C           2.87385583     -1.78926336      9.58201854
C           3.47889913     -1.63420636      8.19926671
O           3.39156359     -2.50289744      7.35433517
O           4.10025411     -0.52362728      7.96704874
H           8.73374113      2.26377668      3.79137422
H           9.00061070      2.51292140      5.52596270
H           8.25214669      3.79337492      4.55146842
H           6.28111170      2.33119965      4.15954265
H           6.54781978      2.58049745      5.89306360
H           7.72062517      0.40997620      6.02492750
H           7.44773729      0.15390108      4.29249409
H           5.00901574      0.25047484      4.65570502
H           5.26649390      0.48355685      6.39362554
H           6.22667146     -1.94087483      4.83089469
H           4.71569206     -1.88205186      5.74336071
H           6.96890972     -1.06799111      7.46885641
H           7.04022809     -3.36203106      8.31421293
H           6.42944854     -4.58685745      5.88710980
H           4.86085619     -3.90458153      6.31054776
H           6.44766286     -5.74454962      8.19015366
H           4.31384629     -6.86611674      8.47133248
H           3.24842489     -5.83891338      6.02233338
H           2.99593758     -4.54812481      7.19377420
H           2.10540254     -7.44014430      7.48104149
H           1.04750233     -6.09785085      7.02558281
H           2.55843748     -5.91695456      9.62466250
H           1.18078205     -7.00974401      9.52215768
H           0.37416143     -4.96590313     10.39654474
H          -0.25266614     -5.14402810      8.74977950
H           0.40537314     -2.84201230      9.19816487
H           1.44340221     -3.52461940      7.94164392
H           3.23145565     -3.89681469      9.59510770
H           2.15911178     -3.34250401     10.89165263
H           3.62052912     -1.50194789     10.32311725
H           2.02546264     -1.10914874      9.67280018
H           4.08667476      0.07053464      8.72129947
          52
 Energy =    -62.36940876 a.u.  #Cluster:   46
C           4.39074316     -1.04556175      4.15244096
C           4.66274774     -2.48025985      4.57700244
C           6.02966125     -2.60502180      5.23229613
C           6.27488383     -4.01156137      5.75320015
C           7.64457681     -4.11817853      6.41769106
C           7.80538460     -5.43870256      7.10433832
C           8.08240212     -5.63493193      8.38013154
C           8.31474350     -4.56913482      9.41637806
C           7.35915697     -4.73232898     10.56898669
C           6.17815971     -4.14740312     10.64016244
C           5.60327280     -3.24335826      9.59070513
C           4.08389600     -3.33577516      9.53301747
C           3.55976703     -2.63088269      8.29192133
C           2.03933012     -2.67022995      8.18834898
C           1.34025811     -1.74521118      9.18135472
C           1.57980318     -0.26011440      8.92010377
C           1.10511655      0.17305967      7.53321206
C           2.18507546     -0.05895668      6.49162379
O           3.36179309     -0.08289357      6.80315414
O           1.81098018     -0.22027732      5.26662630
H           3.38622764     -0.95070254      3.74206858
H           5.12111811     -0.73172117      3.40827111
H           4.46321421     -0.39607664      5.02650077
H           4.61708247     -3.13920629      3.70866114
H           3.90120341     -2.79680253      5.29178358
H           6.08699351     -1.90718310      6.07032486
H           6.80574830     -2.34576645      4.50978741
H           6.20836443     -4.72605640      4.93129124
H           5.50365302     -4.25045877      6.48793506
H           7.74513695     -3.30210845      7.13406218
H           8.41494236     -4.00263893      5.65150680
H           7.64868996     -6.29156793      6.44910350
H           8.15382311     -6.64572345      8.77174238
H           8.19292195     -3.58090534      8.97358814
H           9.33802153     -4.65895237      9.78720553
H           7.69330271     -5.40124648     11.35512933
H           5.53417859     -4.30415302     11.50039069
H           6.00196101     -3.51241837      8.61234035
H           5.88734676     -2.20766151      9.79593979
H           3.65752470     -2.88535350     10.43022688
H           3.78718434     -4.38579056      9.49605431
H           3.98308753     -3.12990856      7.41909168
H           3.90503112     -1.59546271      8.28842067
H           1.71176045     -3.69439409      8.37523156
H           1.73737798     -2.39986132      7.17570676
H           1.68116617     -1.98473606     10.18960950
H           0.26627665     -1.93201817      9.12862596
H           2.64670109     -0.03521367      8.99826389
H           1.05267325      0.30900389      9.68578786
H           0.88216131      1.24072976      7.54046615
H           0.19650195     -0.36467150      7.26105545
H           0.85750702     -0.17696964      5.15755353
          52
 Energy =    -62.36938108 a.u.  #Cluster:   47
C           7.24452356      0.81860023      9.61676907
C           6.54689645     -0.23508832      8.77167491
C           5.22867907      0.28494904      8.21617573
C           4.51901838     -0.79951679      7.42333725
C           3.15400205     -0.34753062      6.90526133
C           2.35781898     -1.53028002      6.44606112
C           2.19194049     -1.90359310      5.19002236
C           2.75229125     -1.16546604      4.00064572
C           4.25894340     -1.07103778      4.01738717
C           5.07622900     -2.10550352      4.10081446
C           4.65548011     -3.53405889      4.26167073
C           4.83554392     -3.96610840      5.71586461
C           4.41752626     -5.41060621      5.94220378
C           4.63042282     -5.81345614      7.39774691
C           3.61070011     -5.15525072      8.31880982
C           3.88042510     -5.43468871      9.79466542
C           5.28103353     -5.00521257     10.25600443
C           5.58974723     -3.58230712      9.84120551
O           5.67846119     -3.27819094      8.66244887
O           5.74689948     -2.69002255     10.75709346
H           6.60384022      1.10289800     10.45167067
H           7.44402213      1.70241358      9.01047678
H           8.18651970      0.43460793     10.00591394
H           6.34770693     -1.12133710      9.37984521
H           7.19294507     -0.52544958      7.94159719
H           5.41586964      1.14623830      7.57197983
H           4.58926471      0.60238681      9.04261067
H           4.38315908     -1.66910479      8.06916623
H           5.14592609     -1.09693406      6.58202175
H           3.29290854      0.36559327      6.09147998
H           2.62698127      0.15003244      7.72218496
H           1.94057902     -2.12772029      7.25080773
H           1.62187531     -2.79707368      4.96107870
H           2.33818129     -0.15576596      3.98228194
H           2.44147655     -1.67708951      3.08794717
H           4.66175192     -0.06696317      3.94277525
H           6.15065963     -1.95008437      4.11682870
H           5.26919067     -4.17796629      3.62857181
H           3.60930825     -3.66041944      3.98005948
H           4.23123677     -3.31710075      6.34866909
H           5.88230828     -3.84571446      6.00117624
H           5.01145219     -6.05557127      5.29258705
H           3.36357117     -5.52679930      5.68289076
H           5.63334087     -5.49738524      7.68968974
H           4.55772308     -6.89678177      7.50124992
H           2.61563559     -5.52456734      8.06662246
H           3.62372581     -4.07778046      8.15032179
H           3.76907238     -6.50479604      9.97790640
H           3.13754674     -4.90356606     10.39181438
H           6.02099156     -5.66296394      9.79918547
H           5.34247774     -5.10929324     11.33928796
H           5.66251857     -3.03667184     11.64905367
          52
 Energy =    -62.36934240 a.u.  #Cluster:   48
C           7.05754091     -0.40365396      3.88382518
C           7.66169841     -1.78777571      4.05672172
C           7.05420947     -2.50569047      5.25148160
C           7.64202363     -3.89840848      5.42052817
C           7.05071218     -4.60863788      6.63046125
C           5.58164018     -4.86669681      6.46415124
C           4.74424637     -5.13025617      7.44903697
C           5.11988348     -5.20960534      8.90257304
C           4.04098394     -4.60451880      9.74829531
C           4.13315792     -3.49745751     10.46107356
C           5.32437210     -2.59570275     10.57693771
C           5.02304101     -1.27554662      9.86447427
C           4.96566757     -1.46846552      8.35355391
C           4.15314592     -0.36364476      7.69213067
C           3.84786135     -0.64445747      6.22497252
C           3.02111968     -1.90613233      5.98685022
C           1.69871565     -1.91798187      6.77034693
C           1.89293874     -2.59853108      8.11314238
O           2.12978156     -1.96706717      9.12633359
O           1.83812791     -3.89074201      8.11703272
H           7.22798352      0.18610074      4.78451733
H           5.98330417     -0.49155782      3.72156504
H           7.50517394      0.10761643      3.03271521
H           8.73936941     -1.70003037      4.20428617
H           7.48174628     -2.37923699      3.15748489
H           5.97497309     -2.58331422      5.10992991
H           7.24238593     -1.92315227      6.15575495
H           8.72305163     -3.81332093      5.53991449
H           7.43419485     -4.48275636      4.52225464
H           7.21683378     -3.99348523      7.51789659
H           7.56763691     -5.55982423      6.77987517
H           5.22749928     -4.84191928      5.43815342
H           3.69142238     -5.30612397      7.25135681
H           6.06912391     -4.69975583      9.06810672
H           5.24351863     -6.26178029      9.17512801
H           3.08887646     -5.12399180      9.68614277
H           3.25014589     -3.12023710     10.97087502
H           6.20474360     -3.05188278     10.12367618
H           5.53070703     -2.39661573     11.62988912
H           5.77640069     -0.52964470     10.11540614
H           4.04795684     -0.92072776     10.20571705
H           4.49791438     -2.43067460      8.14336285
H           5.97433004     -1.48703502      7.93941092
H           4.70141065      0.57618090      7.76889985
H           3.21291873     -0.25347547      8.23673594
H           4.78886742     -0.74068397      5.68243517
H           3.30018818      0.20760099      5.81834369
H           3.59874771     -2.79005156      6.26221037
H           2.80801729     -1.96683936      4.91918725
H           0.95243679     -2.46911531      6.19875984
H           1.35563009     -0.89344425      6.91448265
H           1.63866674     -4.25571943      7.25121304
          52
 Energy =    -62.36930217 a.u.  #Cluster:   49
C           6.94090585     -3.31000586      6.56205273
C           6.96480018     -2.07201765      7.44529317
C           5.88510835     -1.08877096      7.02099245
C           5.93257603      0.19300822      7.83830403
C           4.84455998      1.16616465      7.39108338
C           5.05355684      1.57361407      5.96343598
C           4.14389209      1.60725686      5.00759039
C           2.69228520      1.24581852      5.15286490
C           2.36165455      0.04891422      4.30497436
C           1.97836716     -1.13305054      4.75004564
C           1.81185346     -1.52828578      6.18492483
C           2.46681016     -2.87620780      6.46633553
C           2.52727195     -3.14004329      7.96145138
C           3.25636205     -4.43630962      8.27944206
C           3.52811299     -4.54198342      9.77286897
C           4.20399678     -5.85138294     10.17710791
C           5.44873716     -6.18875383      9.35492507
C           6.47488726     -5.07179358      9.29758807
O           6.27029149     -3.96343423      9.74882431
O           7.58478597     -5.35731809      8.68930659
H           5.95038047     -3.76507885      6.60208806
H           7.67779626     -4.03735345      6.90268444
H           7.15747574     -3.03232500      5.53059872
H           7.93961434     -1.58783628      7.36945989
H           6.80040613     -2.36611535      8.48546002
H           4.90755199     -1.55675336      7.14694054
H           6.01964594     -0.84717775      5.96437656
H           6.90934420      0.66259755      7.70819593
H           5.79689636     -0.04936172      8.89300551
H           4.87688576      2.05360321      8.02747338
H           3.87300549      0.68673207      7.51434652
H           6.07887029      1.85732809      5.74025030
H           4.42322185      1.90220757      4.00022327
H           2.08754847      2.09049673      4.81279597
H           2.45295754      1.05045867      6.19664775
H           2.47945964      0.21976485      3.23887807
H           1.76475471     -1.93452225      4.04804097
H           0.74929122     -1.59525168      6.43178884
H           2.26818660     -0.78286951      6.83740687
H           3.48522761     -2.86757307      6.07329266
H           1.90829875     -3.67095716      5.97000459
H           1.51595522     -3.17550794      8.36991470
H           3.06353844     -2.31476823      8.43545829
H           4.20159103     -4.43800321      7.73374107
H           2.66049816     -5.28807353      7.94747505
H           2.58128928     -4.45762169     10.30849355
H           4.16284716     -3.70357585     10.06650959
H           3.48623018     -6.66589173     10.06343318
H           4.48305105     -5.78621832     11.23021477
H           5.15700815     -6.41827767      8.32909120
H           5.91984353     -7.08011560      9.77069889
H           7.61001671     -6.26700913      8.38057120
          52
 Energy =    -62.36905450 a.u.  #Cluster:   50
C           6.47627215     -3.35464757      6.10614737
C           6.51510681     -1.84589646      6.29411503
C           6.05327125     -1.45498661      7.69090480
C           6.17775376      0.03997277      7.96683073
C           5.13823708      0.87171233      7.21852141
C           5.43736544      0.99058327      5.75374823
C           4.55120103      1.06773034      4.77773320
C           3.05752338      1.03399014      4.94132163
C           2.47227793     -0.14087922      4.20895797
C           1.88162838     -1.18444875      4.76085389
C           1.69842703     -1.42970404      6.22613869
C           2.38758217     -2.72634924      6.64246167
C           2.43731904     -2.85764997      8.15509240
C           3.19525678     -4.10661833      8.58100303
C           3.56961571     -4.03519140     10.05404411
C           4.26058381     -5.29897420     10.56551744
C           5.42219104     -5.76533383      9.68666239
C           6.43412554     -4.67407759      9.39033791
O           6.33787412     -3.54958720      9.83846356
O           7.39919167     -4.99891709      8.58713798
H           7.14267425     -3.83764890      6.82197091
H           6.78413122     -3.62148386      5.09665216
H           5.46131434     -3.71424397      6.27592027
H           5.86766619     -1.38074582      5.55041311
H           7.53401917     -1.48624109      6.14112122
H           6.65268272     -2.00072777      8.42502379
H           5.01210979     -1.75423089      7.82012650
H           7.17706901      0.37331121      7.68067788
H           6.04789567      0.20599405      9.03676201
H           5.12587563      1.87628406      7.64939660
H           4.15439393      0.42599024      7.37223983
H           6.49798335      1.04409169      5.52470776
H           4.87975612      1.15145351      3.74603827
H           2.64176631      1.95156152      4.51664046
H           2.79584469      0.99517403      5.99738499
H           2.58673010     -0.08689401      3.13020037
H           1.50463751     -1.98768422      4.13348215
H           0.63481087     -1.50424950      6.46346922
H           2.12567754     -0.61148720      6.80689477
H           3.41108653     -2.72210884      6.26262916
H           1.86029443     -3.57903525      6.21254892
H           1.42431867     -2.87889355      8.55968444
H           2.95388893     -1.98391742      8.55882828
H           4.10314628     -4.17089840      7.97909046
H           2.58822060     -4.99329983      8.39190607
H           2.66484459     -3.86852511     10.64047567
H           4.23316373     -3.18000781     10.19761804
H           3.52567979     -6.10387533     10.62129852
H           4.63434836     -5.10545622     11.57243258
H           5.03730727     -6.13209600      8.73428687
H           5.93241785     -6.59460183     10.17787317
H           7.35208963     -5.91818272      8.31127277
          52
 Energy =    -62.36900792 a.u.  #Cluster:   51
C           3.02676985      0.13525987      6.92666403
C           3.72619736      0.45526086      5.61347177
C           4.75836555     -0.61221588      5.26399942
C           6.08962362     -0.38417700      5.96590191
C           7.03039838     -1.57266415      5.74540139
C           6.72355177     -2.68661304      6.69968101
C           6.22735971     -3.86885096      6.38997438
C           5.83870155     -4.32252290      5.00555001
C           4.85155745     -5.45293170      5.08032997
C           3.54856155     -5.31722484      5.25056563
C           2.80055568     -4.02584803      5.37798969
C           2.12652653     -3.91451730      6.74555980
C           3.14697140     -3.84193413      7.87206681
C           2.47008443     -3.89692163      9.23508746
C           3.48754099     -3.89137033     10.38283034
C           3.38299554     -2.65653066     11.27343575
C           3.64784693     -1.35500777     10.51353311
C           5.00362570     -1.40726219      9.83723140
O           5.09396002     -1.38625733      8.62310540
O           6.04365315     -1.50368917     10.59442522
H           3.76610134     -0.03640465      7.70864836
H           2.43302664     -0.77152977      6.81251239
H           2.37279472      0.95340675      7.22304086
H           4.22850502      1.42076546      5.69060829
H           2.97758606      0.51633717      4.82293312
H           4.93443311     -0.62235948      4.18760408
H           4.36384811     -1.58777600      5.55339599
H           5.92635649     -0.26273984      7.03850313
H           6.54327636      0.52644002      5.57382452
H           8.05951835     -1.24800884      5.91016839
H           6.93294412     -1.91358927      4.71406794
H           6.91331843     -2.43713368      7.74038840
H           6.05431830     -4.60728545      7.16629524
H           6.73181946     -4.65310830      4.47064218
H           5.41009832     -3.48065858      4.45973976
H           5.28819449     -6.44527782      5.03083470
H           2.91764570     -6.19872945      5.32721272
H           2.03246292     -3.97662936      4.60337650
H           3.47638889     -3.18018211      5.25254956
H           1.49143714     -4.78920499      6.89956635
H           1.50328420     -3.01983354      6.77187251
H           3.72482308     -2.91832126      7.78644873
H           3.83079267     -4.68888784      7.78912195
H           1.86680488     -4.80478223      9.27740782
H           1.79755986     -3.04312301      9.33218282
H           4.49367292     -3.94310217      9.96318872
H           3.34112064     -4.77315717     11.00660853
H           4.11932334     -2.73909268     12.07500726
H           2.38681918     -2.61848682     11.71682741
H           3.61957446     -0.52475582     11.21877062
H           2.87987420     -1.20446404      9.75492936
H           5.82075990     -1.51299509     11.52977924
          52
 Energy =    -62.36897075 a.u.  #Cluster:   52
C           7.84500383     -3.44219575      7.22205758
C           6.63117912     -2.54887838      7.01597611
C           6.45383269     -1.59915145      8.19309657
C           5.19899590     -0.74653268      8.05996848
C           5.31177807      0.25817833      6.91533974
C           4.06972093      1.08689572      6.80796078
C           3.24909334      1.13004195      5.77400950
C           3.41357864      0.37111014      4.48548612
C           2.10331494     -0.17658860      3.98166328
C           1.36664606     -1.05894509      4.63199576
C           1.72138032     -1.67761334      5.94881344
C           2.16300363     -3.13015256      5.78073822
C           2.52567912     -3.72880788      7.12913116
C           3.03672342     -5.15524758      6.99976333
C           3.45168942     -5.73056533      8.34970819
C           4.72601042     -5.08021390      8.86386501
C           5.15172339     -5.61873136     10.22191945
C           6.39965082     -4.89360032     10.69830592
O           6.90462161     -4.01369261     10.02908137
O           6.89045857     -5.25744348     11.83722663
H           8.74684524     -2.83289910      7.26534966
H           7.93575692     -4.16026990      6.40954120
H           7.73637744     -3.97611643      8.16674170
H           5.73683765     -3.16686156      6.92404878
H           6.75341517     -1.97907918      6.09430496
H           7.32525116     -0.94569161      8.26454246
H           6.39060745     -2.19744851      9.10553476
H           5.02596060     -0.20250790      8.98978757
H           4.34596199     -1.40255054      7.87532139
H           5.48727102     -0.27795970      5.98283349
H           6.16909118      0.90763352      7.10787937
H           3.85285375      1.67213725      7.69736652
H           2.36613665      1.76148805      5.80483320
H           4.11459887     -0.45297824      4.63206142
H           3.83418138      1.04187711      3.73360888
H           1.77163568      0.20789609      3.02319764
H           0.43919303     -1.42316928      4.19972862
H           0.85280352     -1.65785158      6.61057574
H           2.53190745     -1.12510491      6.42466813
H           3.03563422     -3.16814276      5.12613893
H           1.35634530     -3.70822907      5.32691161
H           1.64847209     -3.71467786      7.77882869
H           3.29965585     -3.10626794      7.58170061
H           3.89915740     -5.16469739      6.33019979
H           2.24930737     -5.77198315      6.56353423
H           3.62048711     -6.80435168      8.25399726
H           2.64786550     -5.56688007      9.07001591
H           4.57755317     -4.00263541      8.95350069
H           5.52994983     -5.25364016      8.14572091
H           5.35507691     -6.68816216     10.15386438
H           4.34989898     -5.47005775     10.94651370
H           6.38185669     -5.96339480     12.24622344
          52
 Energy =    -62.36846515 a.u.  #Cluster:   53
C           7.30304765      0.73678582      3.22811426
C           6.20910213      0.78500641      4.28538025
C           6.48619731     -0.17063834      5.44159873
C           6.43578168     -1.64292475      5.04269791
C           5.04251870     -2.07129760      4.57537255
C           4.98870512     -3.55725157      4.37620648
C           4.70724284     -4.44347859      5.31435016
C           4.39437253     -4.13234180      6.75102730
C           5.54117806     -4.54642300      7.62964276
C           5.50793883     -5.45894399      8.58280265
C           4.31219313     -6.24425566      9.02847824
C           4.15509671     -6.17916787     10.54731642
C           3.95840672     -4.74923090     11.03967762
C           2.59895365     -4.18462544     10.64845812
C           2.42063653     -2.75258475     11.14418036
C           3.24532656     -1.75306176     10.33976917
C           2.65043689     -1.50144410      8.95473456
C           3.57270063     -0.58321861      8.17886732
O           4.26121258     -1.00157851      7.26971607
O           3.62160035      0.65238212      8.55586875
H           8.26790457      0.95351842      3.68694717
H           7.10692430      1.47315089      2.45007042
H           7.34459406     -0.25147110      2.77159357
H           5.25184389      0.53651557      3.82615381
H           6.14666937      1.80016320      4.67959362
H           5.74261620     -0.01042123      6.22705718
H           7.47454018      0.05148186      5.84759989
H           6.70731004     -2.24639532      5.91049927
H           7.15669995     -1.83933998      4.24816200
H           4.80316304     -1.56646189      3.63955465
H           4.31727865     -1.76700888      5.33256792
H           5.24239041     -3.89381446      3.37549316
H           4.72316989     -5.50487805      5.08445440
H           3.48645890     -4.65924612      7.04856107
H           4.23042067     -3.05865291      6.87229038
H           6.47110352     -4.03473710      7.39723517
H           6.41028207     -5.68443329      9.14502945
H           4.44009783     -7.28877938      8.73560804
H           3.40781002     -5.86505164      8.55248029
H           5.05457782     -6.59324135     11.00554930
H           3.29716722     -6.78104805     10.84950282
H           4.74997031     -4.12152042     10.62631089
H           4.03921370     -4.73045771     12.12782543
H           1.82303986     -4.81696970     11.08278348
H           2.48964139     -4.20489746      9.56342294
H           2.72142458     -2.71141674     12.19251660
H           1.36925265     -2.46983712     11.07144586
H           4.26377628     -2.12968230     10.23002308
H           3.28297699     -0.80030470     10.87035732
H           1.66816381     -1.04289694      9.07168958
H           2.54853805     -2.44520321      8.41945274
H           3.03119450      0.83762113      9.29179301
          52
 Energy =    -62.36845499 a.u.  #Cluster:   54
C           7.90678543      1.79897422      8.61563197
C           7.17247334      0.51463029      8.26509635
C           5.69662236      0.77821460      8.00806502
C           4.96445807     -0.50468396      7.65371578
C           3.48389136     -0.24636184      7.37549891
C           2.76275287     -1.53516932      7.12946298
C           2.44112428     -2.00683056      5.93867441
C           2.74159376     -1.29387978      4.64355670
C           4.22775978     -1.14462846      4.42472301
C           5.06198966     -2.16195552      4.30528467
C           4.66384260     -3.60330504      4.37898833
C           4.98260897     -4.20028495      5.74964884
C           4.55634510     -5.66083425      5.81044736
C           4.65408209     -6.21209599      7.22880785
C           3.46774648     -5.75984342      8.07239498
C           3.67931263     -5.99581137      9.56400757
C           4.80482812     -5.13871962     10.15658222
C           4.53681434     -3.65685568      9.97155207
O           4.42891213     -3.17281810      8.85846706
O           4.42767060     -2.92480735     11.02883094
H           7.46918225      2.23949451      9.51156006
H           7.81526045      2.50977249      7.79425078
H           8.96194991      1.59925400      8.79679376
H           7.26980578     -0.19741842      9.08623910
H           7.61497663      0.07403707      7.37016115
H           5.59415754      1.48737847      7.18398436
H           5.24493843      1.21626677      8.90039571
H           5.04726897     -1.21630215      8.47866804
H           5.42482343     -0.94728459      6.76908526
H           3.39599094      0.41271056      6.51041271
H           3.05524713      0.25846192      8.24369699
H           2.57401160     -2.12315664      8.02232465
H           1.95470091     -2.97111521      5.84516204
H           2.28297597     -0.30407302      4.66078343
H           2.31109856     -1.85956288      3.81577899
H           4.59704690     -0.12604054      4.38658725
H           6.12570255     -1.98744580      4.17760488
H           5.20474967     -4.17679323      3.62346081
H           3.59321819     -3.70813341      4.19540310
H           4.45916527     -3.63487647      6.52311485
H           6.05513574     -4.12691881      5.93635915
H           5.19189170     -6.23924508      5.13851310
H           3.52257938     -5.74438585      5.46898608
H           5.58331226     -5.85242990      7.67336461
H           4.68104014     -7.30223347      7.20790248
H           2.57927514     -6.30281878      7.74757868
H           3.29515628     -4.69626873      7.90070075
H           3.91892339     -7.04901019      9.72238650
H           2.75346959     -5.76856831     10.09512135
H           5.74047808     -5.38405078      9.65272481
H           4.90833060     -5.37368196     11.21608479
H           4.53603747     -3.42395173     11.84333436
          52
 Energy =    -62.36842950 a.u.  #Cluster:   55
C           8.47060538     -1.16630097     10.64578770
C           7.64861791     -0.53631158      9.53229853
C           7.91453845     -1.23119939      8.20398055
C           7.23072823     -0.52364595      7.03989545
C           5.72547691     -0.74407723      7.03454761
C           5.05055245      0.04324905      5.94721829
C           3.75356070      0.02930480      5.70773374
C           2.74817768     -0.78316691      6.46878450
C           1.81635990     -1.50452609      5.53700279
C           1.20224096     -2.64474719      5.78916399
C           1.29790503     -3.44689327      7.05349833
C           1.10666550     -4.93424015      6.77035995
C           2.20143078     -5.53467066      5.88832453
C           3.50904964     -5.78656558      6.64224838
C           4.52110079     -4.65770123      6.49028902
C           5.71205331     -4.83807144      7.42643126
C           5.34194140     -4.66122178      8.90370029
C           4.94696316     -3.22643605      9.19423941
O           4.04327910     -2.67933321      8.58937610
O           5.62900001     -2.59178769     10.08900752
H           8.22516783     -2.22571862     10.72585650
H           8.26188758     -0.68114619     11.59832525
H           9.53286604     -1.06875093     10.42057491
H           7.90845895      0.51942881      9.44157672
H           6.58906161     -0.61836841      9.77993780
H           7.55828183     -2.26205187      8.25910386
H           8.99205655     -1.24513722      8.03082677
H           7.63928391     -0.89382413      6.09844583
H           7.43653844      0.54626647      7.10981145
H           5.30641515     -0.45585406      8.00189245
H           5.52193846     -1.80750269      6.88809643
H           5.71563596      0.65680404      5.34770302
H           3.33036216      0.62598439      4.90481967
H           2.15660606     -0.11036574      7.09915982
H           3.25486196     -1.49426115      7.12258549
H           1.65420573     -0.99562567      4.59102417
H           0.53201050     -3.07192660      5.04800525
H           0.50970120     -3.11967035      7.73693636
H           2.25600622     -3.27526614      7.54625388
H           0.14612241     -5.05782579      6.26646469
H           1.07540089     -5.48317511      7.71267964
H           2.39168134     -4.87209456      5.04238784
H           1.83263070     -6.48452873      5.50036044
H           3.97217763     -6.70428020      6.27631894
H           3.27577982     -5.92751979      7.69901201
H           4.04769592     -3.70005186      6.70272749
H           4.87492965     -4.63928888      5.45865885
H           6.48169161     -4.10581721      7.17513488
H           6.12298868     -5.83869447      7.27967753
H           6.19441027     -4.94473887      9.52137450
H           4.50519637     -5.31750831      9.14460467
H           6.30635390     -3.13722504     10.49707660
          52
 Energy =    -62.36836425 a.u.  #Cluster:   56
C           5.63027772      1.30844211      3.56954732
C           5.47101034      0.96893370      5.04429261
C           6.54214432      0.00076965      5.53875468
C           6.56702623     -1.32462832      4.78151990
C           5.20515055     -2.02257395      4.81989351
C           5.34103781     -3.48731218      4.54134268
C           5.15265451     -4.45877709      5.41575563
C           4.75481796     -4.29887795      6.85687701
C           5.61238143     -5.15749617      7.73960729
C           5.18721052     -6.01790725      8.64580115
C           3.76331828     -6.30001746      9.01806898
C           3.57512450     -6.19712148     10.53097111
C           3.76978394     -4.76891413     11.03011717
C           2.56258042     -3.89029182     10.72865163
C           2.77880926     -2.46003438     11.21408452
C           3.65917246     -1.65721096     10.26180902
C           2.88644470     -1.18505149      9.03437412
C           3.84483235     -0.70920821      7.96179111
O           4.92924118     -1.24930874      7.82365046
O           3.47138906      0.25263730      7.19076166
H           5.45983382      0.42420410      2.95688758
H           6.63869607      1.67837681      3.38374033
H           4.91266778      2.07547208      3.28188592
H           4.48416792      0.53487244      5.21602285
H           5.54161803      1.88838839      5.62729142
H           6.34768584     -0.21690524      6.59223144
H           7.51993837      0.47657515      5.45111663
H           7.30676925     -1.97392787      5.25279249
H           6.86565625     -1.16187444      3.74576718
H           4.54493085     -1.56783223      4.08000665
H           4.77363045     -1.87449951      5.80884447
H           5.64798269     -3.72275073      3.52610859
H           5.28930341     -5.49366569      5.11449121
H           3.70474908     -4.57677352      6.97293665
H           4.86704713     -3.25609102      7.16607173
H           6.67786675     -5.03219941      7.56836930
H           5.90720278     -6.59150262      9.22374224
H           3.50635738     -7.31334391      8.70126572
H           3.08993283     -5.60229144      8.51973305
H           4.30304651     -6.85218362     11.01212170
H           2.57198289     -6.53081683     10.79914272
H           4.66048014     -4.34445107     10.56280014
H           3.92189771     -4.78175006     12.11065994
H           1.69195825     -4.31783926     11.22832874
H           2.37153110     -3.88161835      9.65429193
H           3.24245815     -2.49909692     12.20112582
H           1.81760257     -1.95135653     11.30185901
H           4.49620426     -2.27431682      9.92435841
H           4.06085938     -0.78640015     10.78155543
H           2.18460565     -0.39671902      9.30679620
H           2.32135561     -2.02392995      8.62311675
H           2.59396169      0.58348255      7.39849318
          52
 Energy =    -62.36827976 a.u.  #Cluster:   57
C           4.68466314     -0.66664111      2.23106342
C           4.86006649     -0.45281128      3.72628980
C           6.08260799     -1.19338259      4.24751364
C           6.23582836     -1.00803275      5.75009343
C           7.48616640     -1.71181947      6.28280981
C           7.39102785     -3.19791149      6.09381191
C           6.78767522     -4.02629235      6.92671629
C           6.13412905     -3.64451229      8.21815103
C           6.44325872     -4.62598580      9.31589222
C           6.13301719     -4.46063652     10.58815129
C           5.37779135     -3.29655261     11.15426867
C           4.07259971     -3.77541536     11.79601439
C           3.13008652     -4.42268250     10.77756385
C           2.05872249     -3.46944535     10.25785954
C           2.63857631     -2.22952014      9.58914259
C           1.59744785     -1.51483599      8.73268520
C           1.37516435     -2.22873697      7.39467097
C           2.58251366     -2.04501799      6.49411624
O           3.69835401     -2.37575835      6.85105461
O           2.39114431     -1.49734876      5.34139986
H           3.80716018     -0.13256987      1.86884635
H           4.56463405     -1.73030910      2.02416161
H           5.56595665     -0.30329476      1.70183539
H           3.97297860     -0.81517611      4.25210031
H           4.97321675      0.61268560      3.93257858
H           6.97542523     -0.81596705      3.74409481
H           5.98125416     -2.25611613      4.01902415
H           5.35494117     -1.42014113      6.24936121
H           6.29833633      0.05817788      5.97133251
H           7.58978824     -1.47957783      7.34432365
H           8.35732502     -1.32568904      5.75166201
H           7.82496312     -3.57648170      5.17402471
H           6.74051570     -5.08850517      6.70365245
H           5.04884998     -3.60849027      8.06918355
H           6.45032075     -2.64399813      8.52053500
H           6.96819671     -5.51921178      8.99135801
H           6.39177653     -5.22138202     11.31926877
H           5.16079984     -2.57442465     10.36949225
H           5.98324533     -2.80849155     11.92120030
H           3.56853744     -2.93380551     12.27170439
H           4.33002888     -4.50358529     12.56634740
H           2.62970882     -5.27542274     11.23737592
H           3.71672618     -4.78798356      9.93245174
H           1.41902237     -3.16003987     11.08649769
H           1.44473288     -4.00732002      9.53310746
H           3.47308609     -2.52364889      8.95034032
H           3.01142417     -1.54890278     10.35404586
H           1.92301779     -0.49296008      8.53155827
H           0.65692151     -1.47556862      9.28503225
H           0.48474139     -1.82789509      6.91024068
H           1.22360416     -3.29259207      7.58150051
H           1.47226514     -1.27606180      5.17293561
          52
 Energy =    -62.36827158 a.u.  #Cluster:   58
C           8.70772476     -3.39650692      7.57436636
C           8.15889908     -2.75939123      6.30528098
C           7.59876776     -1.36379406      6.55821421
C           6.27358889     -1.40687412      7.30269905
C           5.68945305     -0.00692937      7.48530343
C           4.36172738     -0.08663482      8.17230220
C           3.19282263     -0.00345068      7.56349833
C           3.02496676      0.21245713      6.07983018
C           3.35455391     -1.05092896      5.32498822
C           2.54188886     -2.08573165      5.21033548
C           1.14479888     -2.16385878      5.74401259
C           0.89628597     -3.43285537      6.55984359
C           1.53116151     -3.38705119      7.94720715
C           3.04881487     -3.55468717      7.96097088
C           3.47398544     -4.94009745      7.49153338
C           4.97976972     -5.17120036      7.57706652
C           5.45822514     -5.47666264      9.00183663
C           5.52703586     -4.20731498      9.82790314
O           6.36927361     -3.36193829      9.59460814
O           4.64202797     -4.04162262     10.75786981
H           9.49247744     -2.76630860      7.99157502
H           9.12135718     -4.37839648      7.35153550
H           7.91499778     -3.50824631      8.31502769
H           7.36419955     -3.38835616      5.90030255
H           8.96124193     -2.69613680      5.56891003
H           7.43738561     -0.86165521      5.60250120
H           8.31975361     -0.78342617      7.13718526
H           6.40796527     -1.86524171      8.28361148
H           5.56825094     -2.01446130      6.73325944
H           5.58256699      0.45734542      6.50343487
H           6.38755974      0.58519037      8.08021823
H           4.41211189     -0.28010440      9.23939279
H           2.27194365     -0.12851039      8.12239986
H           3.69297200      1.00931946      5.75000240
H           1.99712524      0.50938954      5.87149262
H           4.35370655     -1.09082130      4.90577771
H           2.86001001     -2.97470909      4.67332397
H           0.45580839     -2.16690970      4.89545526
H           0.92284131     -1.29576571      6.36530481
H           1.27684628     -4.29188210      6.00613652
H          -0.18014215     -3.55424357      6.68358156
H           1.10269817     -4.18874535      8.55194745
H           1.27498097     -2.43250462      8.41114704
H           3.39207513     -3.39799890      8.98384364
H           3.51501051     -2.80375248      7.32328677
H           3.16368947     -5.06366682      6.45286617
H           2.96357515     -5.69417551      8.09442845
H           5.50347741     -4.28684528      7.20857857
H           5.23750415     -6.01605661      6.93726154
H           6.46051444     -5.90234180      8.94714088
H           4.78453191     -6.20330707      9.45704158
H           4.04869194     -4.79336973     10.84061174
          52
 Energy =    -62.36822248 a.u.  #Cluster:   59
C           9.17295737     -3.22671245      7.86217414
C           9.22301828     -1.75871411      7.46058379
C           7.95960341     -1.32978973      6.72172809
C           6.78908949     -1.13254839      7.67358738
C           5.48983911     -0.88906437      6.91853826
C           4.30889161     -0.85236521      7.84138179
C           3.15133950     -0.27928064      7.56629600
C           2.84357700      0.42747239      6.26772463
C           2.96862144     -0.48608824      5.07495816
C           2.05187822     -1.34245948      4.66129728
C           0.72345849     -1.61715720      5.29827531
C           0.70967610     -3.03440283      5.88038581
C           1.60169755     -3.09292937      7.10995711
C           1.98321168     -4.50114497      7.53800803
C           2.89273999     -4.42003648      8.75812365
C           3.71972905     -5.67767210      8.97408812
C           4.78351388     -5.45572114     10.05610017
C           5.81446534     -4.45506090      9.56754545
O           5.52005292     -3.28905895      9.37561102
O           7.00738826     -4.88127066      9.32656411
H           8.31502905     -3.42656010      8.50591555
H          10.08109129     -3.50036933      8.39676363
H           9.08723741     -3.84627611      6.96961905
H          10.08959317     -1.60482235      6.81631932
H           9.33891238     -1.13980083      8.35170608
H           7.69796977     -2.09566139      5.98846612
H           8.14129847     -0.39320810      6.19222757
H           6.99564291     -0.28718267      8.33177229
H           6.66585361     -2.02621661      8.29057238
H           5.35598445     -1.69970792      6.19651987
H           5.55623249      0.04739787      6.35971093
H           4.45828950     -1.37730575      8.78014068
H           2.33945037     -0.31446040      8.28372815
H           3.54326589      1.25708854      6.14536284
H           1.83127433      0.83007089      6.31305460
H           3.90966710     -0.41132405      4.54069857
H           2.25292122     -1.96381552      3.79260432
H          -0.06165556     -1.53238196      4.54461773
H           0.52562899     -0.90441609      6.09986399
H           1.08587179     -3.72818099      5.12622369
H          -0.30802372     -3.32089966      6.14517323
H           1.10739460     -2.58677784      7.94104977
H           2.52684617     -2.55819012      6.88819400
H           2.52093774     -4.98542918      6.72021312
H           1.09094423     -5.08605811      7.76481797
H           2.29546316     -4.21641791      9.64807986
H           3.57486007     -3.57937428      8.61117676
H           4.21549755     -5.94759901      8.03916317
H           3.06448029     -6.49938660      9.26730037
H           5.26335925     -6.40390343     10.29805982
H           4.29264466     -5.06233455     10.94700982
H           7.12627043     -5.81545880      9.51377318
          52
 Energy =    -62.36818016 a.u.  #Cluster:   60
C           6.74858220     -2.88285311      6.31663882
C           7.48308529     -1.63015722      6.77721185
C           7.06071013     -1.18904971      8.17694473
C           5.56438167     -0.92290342      8.29946027
C           5.12263895      0.28127157      7.47224117
C           3.63301772      0.42097177      7.50851212
C           2.84407716      0.46818618      6.45150371
C           3.32859742      0.42805866      5.02154232
C           3.98147209     -0.88160207      4.64583677
C           3.35147816     -2.04048971      4.59700936
C           1.90704369     -2.25257252      4.93397382
C           1.71136983     -3.51079948      5.77539093
C           2.58282978     -3.50112477      7.02442319
C           2.17671277     -4.61995657      7.97454327
C           3.21613342     -4.84956917      9.06719673
C           4.35939375     -5.72297326      8.56657904
C           5.41775084     -5.92410079      9.64593585
C           6.18929823     -4.63426282      9.86106596
O           6.04593690     -3.69456675      9.10224895
O           7.00159044     -4.58699036     10.86357787
H           6.75740098     -3.62585960      7.11438415
H           7.22611586     -3.29629962      5.43023889
H           5.71299429     -2.64817057      6.07642647
H           7.29682367     -0.82506193      6.06552836
H           8.55498007     -1.83110668      6.79053075
H           7.60409425     -0.28208404      8.44538667
H           7.32207104     -1.98018398      8.88337814
H           5.32027818     -0.73413470      9.34599504
H           5.01410188     -1.80883969      7.97998593
H           5.46211611      0.16530353      6.44381291
H           5.58764466      1.17738936      7.89115696
H           3.21464240      0.45960280      8.51010187
H           1.77069228      0.55433086      6.57888936
H           4.04807300      1.23414105      4.87050387
H           2.47886252      0.59836492      4.35874553
H           5.03324911     -0.82254946      4.38959553
H           3.87900039     -2.94099271      4.29709761
H           1.33186507     -2.35373727      4.01011728
H           1.52221951     -1.39444982      5.48456722
H           1.96348246     -4.38868213      5.17826989
H           0.66465292     -3.58151918      6.07448565
H           2.48188701     -2.54159892      7.53542718
H           3.62737626     -3.63057192      6.73630393
H           2.05744554     -5.54395788      7.40492407
H           1.21479492     -4.36477654      8.42115799
H           2.75086230     -5.34271484      9.92192534
H           3.61136515     -3.88456807      9.39037664
H           4.82929135     -5.24174686      7.70558964
H           3.95558864     -6.68609537      8.25165150
H           6.12025518     -6.70213107      9.34545706
H           4.94396454     -6.23111668     10.57888167
H           7.00723865     -5.40472205     11.36948121
          52
 Energy =    -62.36803438 a.u.  #Cluster:   61
C           4.23281285      1.07480090      4.33034141
C           5.24912728      0.09490898      4.89844957
C           5.08583519     -1.28726252      4.28084505
C           6.16497081     -2.25728291      4.74624992
C           6.04097081     -2.61249332      6.22616242
C           7.13897011     -3.55191258      6.62210478
C           7.00711152     -4.69843964      7.26448068
C           5.71397789     -5.28672218      7.75069360
C           5.83515704     -5.98025928      9.08339336
C           6.40566821     -5.48905891     10.16963921
C           7.03362808     -4.13479717     10.31570371
C           6.08590858     -3.16956390     11.03229560
C           4.84480079     -2.93115293     10.18756297
C           3.94433618     -1.84795928     10.76193949
C           2.63795169     -1.74716875      9.98150376
C           2.88048724     -1.39535830      8.52210749
C           1.57966704     -1.29565573      7.72844091
C           1.94131869     -1.13030432      6.26726420
O           1.80003438     -0.07193252      5.68732952
O           2.47748162     -2.15555417      5.68727056
H           4.38288124      2.06576607      4.75442941
H           3.22336478      0.73577992      4.57097639
H           4.34052815      1.12902690      3.24789215
H           5.12342461      0.03246748      5.98024085
H           6.25737759      0.45748365      4.68942861
H           5.14102783     -1.19081020      3.19510286
H           4.10468069     -1.69092733      4.54278137
H           7.14429106     -1.80583738      4.57483860
H           6.09828534     -3.17556142      4.16065948
H           5.06197552     -3.05583251      6.41268801
H           6.12222528     -1.69825602      6.81904863
H           8.12468198     -3.22013004      6.30728565
H           7.88027598     -5.30980785      7.47112581
H           5.36329569     -6.01108142      7.01172208
H           4.95953919     -4.50113765      7.82521626
H           5.38871478     -6.96873748      9.12073258
H           6.40527827     -6.07640654     11.08378949
H           7.26857880     -3.71737226      9.33639158
H           7.95632567     -4.22305815     10.89124571
H           6.59553784     -2.21887107     11.19344277
H           5.80012735     -3.58510459     11.99982595
H           4.27483442     -3.85871223     10.10883810
H           5.16663358     -2.63593685      9.18833789
H           4.46491596     -0.88946911     10.72107646
H           3.72640946     -2.08349283     11.80495282
H           2.00019839     -0.98400102     10.43052598
H           2.12045952     -2.70739037     10.03073958
H           3.48948138     -2.17403660      8.06001217
H           3.41939365     -0.44799473      8.46095636
H           0.99476260     -0.44280625      8.07237125
H           1.01112559     -2.21426410      7.87498907
H           2.54381777     -2.92039168      6.26413019
          52
 Energy =    -62.36797167 a.u.  #Cluster:   62
C           4.06077924      1.18738697      4.65320895
C           5.06754979      0.15628244      5.14228812
C           4.94103246     -1.14931135      4.36845474
C           6.05219273     -2.13302151      4.71485591
C           5.96746925     -2.63769605      6.15211931
C           7.09363692     -3.58479830      6.43870809
C           7.01888197     -4.71982979      7.10969925
C           5.77493813     -5.28850424      7.72960156
C           6.01618249     -5.91641748      9.07883225
C           6.65068781     -5.35742452     10.09447872
C           7.24348154     -3.98002041     10.12760766
C           6.32188340     -3.00770646     10.86845246
C           5.01562271     -2.84266495     10.10893560
C           4.12244539     -1.76499670     10.70439196
C           2.76679049     -1.72732765     10.00679430
C           2.90441597     -1.39812295      8.52863675
C           1.55473815     -1.37065350      7.81463589
C           1.82213931     -1.19752321      6.33440505
O           1.60517031     -0.14721112      5.76275209
O           2.36811060     -2.20078212      5.72548646
H           4.17923556      2.12141827      5.19906734
H           3.04714018      0.81303594      4.80752013
H           4.21215896      1.37270714      3.59067953
H           4.90725942     -0.02796810      6.20543988
H           6.07787361      0.54786014      5.00926757
H           4.98784650     -0.92594457      3.30113981
H           3.97397093     -1.61055785      4.58354313
H           7.01649023     -1.64085118      4.57264385
H           5.99648570     -2.98871180      4.04006062
H           5.00290202     -3.12126916      6.31245816
H           6.03829073     -1.78616465      6.83357974
H           8.04615053     -3.26190033      6.02758191
H           7.90411946     -5.33438917      7.24205152
H           5.36937066     -6.04931199      7.05855336
H           5.02471765     -4.50228579      7.83047804
H           5.60739596     -6.91506609      9.19390583
H           6.73911046     -5.89949182     11.03198687
H           7.39079457     -3.60587439      9.11426216
H           8.20913736     -4.01307407     10.63441353
H           6.81287796     -2.03710724     10.94834824
H           6.12047916     -3.38490120     11.87226945
H           4.47298833     -3.78974680     10.10859043
H           5.25461178     -2.57945388      9.07802514
H           4.61063556     -0.79453347     10.59815593
H           3.97859608     -1.97002579     11.76650840
H           2.13083780     -0.97765366     10.48041215
H           2.28906047     -2.70401141     10.10735234
H           3.51799988     -2.15938791      8.04438378
H           3.39648417     -0.43013798      8.41616564
H           0.94984851     -0.54483449      8.18871961
H           1.04279190     -2.31507066      8.00010036
H           2.49950683     -2.96014848      6.29856458
          52
 Energy =    -62.36782748 a.u.  #Cluster:   63
C           3.46274482     -0.27826672      5.13504580
C           4.72108620     -0.66061283      5.89972334
C           5.86077392     -1.00099363      4.95083163
C           7.15069328     -1.33387950      5.69514852
C           7.10881476     -2.70518031      6.35848044
C           7.13073306     -3.82473697      5.35728641
C           7.22179838     -5.10163197      5.67553690
C           7.30740619     -5.61575360      7.08720095
C           6.60534901     -6.93426981      7.21920855
C           5.48809338     -7.14205682      7.89174471
C           4.73039712     -6.08111270      8.63464573
C           3.82383989     -5.30525497      7.67818713
C           3.03913138     -4.21486411      8.39536988
C           3.95232957     -3.14099014      8.96870865
C           3.17390527     -1.90015100      9.37363574
C           4.10964919     -0.80626524      9.86898127
C           3.35535452      0.48157512     10.18445210
C           2.82426450      1.11336935      8.90764678
O           3.00918517      0.58889975      7.82677214
O           2.17303435      2.22295203      9.03055202
H           3.10090084     -1.13102985      4.56203574
H           3.68394609      0.54086071      4.45111546
H           2.69378939      0.04312817      5.83703498
H           4.50590017     -1.51758415      6.53811471
H           5.02057463      0.17304453      6.53796395
H           6.03699638     -0.14210686      4.30107439
H           5.57061002     -1.84821614      4.32711904
H           7.31778602     -0.56982847      6.45587317
H           7.98568783     -1.31495265      4.99310445
H           6.20547705     -2.78461355      6.96936823
H           7.96542776     -2.80783587      7.02795084
H           7.07752809     -3.51939724      4.31714885
H           7.24778975     -5.87043120      4.90988674
H           6.87693509     -4.88177704      7.76844342
H           8.36307778     -5.74568407      7.34492713
H           7.07722016     -7.74607653      6.67376294
H           5.03239520     -8.12716142      7.89705427
H           5.42963898     -5.38351783      9.09756176
H           4.11698637     -6.53151469      9.41582676
H           3.13051548     -6.00237919      7.20539973
H           4.44031639     -4.84292135      6.90532721
H           2.44935023     -4.65871895      9.19916859
H           2.35862259     -3.74440120      7.68306693
H           4.68207992     -2.85881102      8.20616898
H           4.49217290     -3.52674125      9.83418717
H           2.45930758     -2.15616533     10.15760643
H           2.62577069     -1.53330389      8.50342696
H           4.84518785     -0.59860226      9.08819408
H           4.63461463     -1.16236409     10.75644132
H           4.01498608      1.19291808     10.68208674
H           2.51990741      0.26552722     10.85155713
H           2.11036816      2.51114392      9.94569014
          52
 Energy =    -62.36754782 a.u.  #Cluster:   64
C           6.60804688      1.61385916      3.52138533
C           7.20244927      0.98480014      4.77343196
C           6.24807019     -0.01581733      5.41275889
C           6.07552019     -1.27812501      4.57794018
C           5.18103086     -2.26974421      5.30442260
C           4.96457440     -3.54015556      4.53552189
C           4.41599366     -4.62337991      5.05359965
C           3.98600576     -4.72402340      6.48937327
C           5.12665281     -5.18599597      7.36076376
C           4.98853849     -5.84369877      8.49552419
C           3.67990741     -6.22004342      9.12539063
C           3.76737897     -6.15983618     10.64783222
C           4.07744200     -4.75100651     11.14334365
C           2.88722808     -3.81353985     10.99043489
C           3.22882412     -2.39350936     11.43114357
C           4.10561165     -1.66518679     10.41782404
C           3.32987551     -1.25191429      9.17315756
C           4.27785491     -0.83640641      8.06706808
O           5.45792570     -1.13063028      8.10709169
O           3.77364822     -0.19714315      7.06324105
H           6.41561160      0.84845202      2.77030221
H           7.29619685      2.34833874      3.10527541
H           5.66832553      2.10814770      3.76870025
H           7.42776377      1.77447207      5.49149757
H           8.13146703      0.47326348      4.51605276
H           5.26944355      0.44932077      5.55492680
H           6.62257981     -0.30895840      6.39695868
H           7.05353774     -1.73078677      4.40325345
H           5.63010792     -1.03028536      3.61341855
H           4.21269209     -1.79416340      5.49181579
H           5.63073511     -2.49879858      6.27378878
H           5.27742609     -3.51196943      3.49668219
H           4.28921280     -5.52295681      4.46084724
H           3.15272669     -5.42112291      6.58194300
H           3.64981481     -3.74369192      6.83810923
H           6.11253338     -4.93583220      6.98212880
H           5.86330120     -6.15538548      9.05891988
H           3.41540707     -7.23750734      8.82695890
H           2.89349152     -5.54936804      8.77796734
H           4.55827646     -6.83634217     10.97533168
H           2.82187360     -6.48821030     11.08134954
H           4.92840814     -4.35850934     10.58374583
H           4.35125287     -4.79189229     12.19886824
H           2.06502188     -4.19432777     11.59815740
H           2.56275543     -3.79780057      9.94883226
H           3.74627441     -2.44606104     12.39052954
H           2.30895574     -1.82136840     11.56202397
H           4.93118466     -2.31180387     10.10913367
H           4.52834638     -0.77231502     10.88070984
H           2.63844546     -0.44176704      9.40541123
H           2.74874177     -2.09931124      8.80432284
H           2.83064326     -0.04132269      7.15545386
          52
 Energy =    -62.36743505 a.u.  #Cluster:   65
C           2.91932032     -2.94128637      2.94579817
C           4.08615655     -2.07581903      3.39340963
C           4.81139712     -2.70349393      4.57351518
C           5.95804747     -1.82650919      5.05027674
C           6.66548348     -2.45117251      6.24358959
C           7.87279958     -1.66367726      6.65457138
C           8.36531619     -1.62771950      7.87911762
C           7.77400781     -2.39460743      9.02537377
C           7.94318578     -3.88494702      8.85651076
C           7.39267863     -4.78651268      9.64709165
C           6.51488520     -4.46864740     10.81935748
C           5.07207885     -4.90341812     10.56253095
C           4.47733147     -4.18166051      9.36093344
C           2.97935765     -4.43514650      9.26790767
C           2.37175519     -3.89163913      7.98056880
C           2.61121866     -2.39794033      7.81053514
C           1.75338899     -1.82349765      6.68490870
C           2.33447546     -0.49886889      6.22535616
O           3.49100521     -0.44857443      5.84398916
O           1.58089819      0.54563293      6.25584979
H           2.39871454     -2.48059445      2.10751844
H           2.22028261     -3.06781537      3.77301886
H           3.28464962     -3.92264368      2.64288001
H           3.71883389     -1.09224310      3.69284841
H           4.78730190     -1.95005268      2.56714447
H           5.19876542     -3.68300684      4.28696778
H           4.10640486     -2.83508488      5.39598993
H           5.55565900     -0.85191584      5.33423386
H           6.67166892     -1.69057661      4.23592209
H           6.97227228     -3.46524290      5.97171159
H           5.96340109     -2.52722132      7.07726089
H           8.34453884     -1.10789389      5.85001867
H           9.25319636     -1.04539654      8.09935221
H           6.70475878     -2.17465691      9.09145502
H           8.23737210     -2.08387158      9.96341155
H           8.56475434     -4.18508084      8.01944424
H           7.53857080     -5.84677599      9.46314980
H           6.52591857     -3.39571114     11.01267450
H           6.88795163     -4.98834786     11.70397326
H           4.46923109     -4.67540184     11.44266444
H           5.04190833     -5.98003190     10.38742782
H           4.96203175     -4.52676638      8.44585541
H           4.65935320     -3.11119705      9.46673867
H           2.49004414     -3.96236764     10.12167255
H           2.80313987     -5.51104998      9.32010515
H           1.29593332     -4.07551324      7.99068179
H           2.80519726     -4.41552497      7.12656674
H           3.66058536     -2.22583438      7.55995897
H           2.38224130     -1.88227380      8.74465417
H           0.71981197     -1.71780704      7.01345709
H           1.78951151     -2.51663656      5.84249383
H           0.69477712      0.35678351      6.57708553
          52
 Energy =    -62.36738729 a.u.  #Cluster:   66
C           4.29461113     -0.30015925      2.76418836
C           5.39415489     -0.27317189      3.81518229
C           5.92058750     -1.67458544      4.09627800
C           6.79587367     -1.69101891      5.34074649
C           7.39506780     -3.07537853      5.60233361
C           6.33424368     -4.09040104      5.91328232
C           5.81271916     -4.29767103      7.11036886
C           6.20125140     -3.57627637      8.36723666
C           6.32621023     -4.53115389      9.51699885
C           5.78706541     -4.38911947     10.71340146
C           4.93829261     -3.24780261     11.18278936
C           3.65511464     -3.76093390     11.83567784
C           2.71903978     -4.44053059     10.82962441
C           1.51771418     -3.56900805     10.47069978
C           1.89974647     -2.30594873      9.70680643
C           2.30875032     -2.60561990      8.27264574
C           2.81369018     -1.35004491      7.57269430
C           3.08330861     -1.57118285      6.09593670
O           2.77766160     -0.72712074      5.27186127
O           3.66112297     -2.66791017      5.74361099
H           4.00001444      0.71234428      2.49293551
H           3.42868716     -0.82052334      3.17672402
H           4.64275855     -0.82381376      1.87467866
H           4.98982043      0.14829854      4.73763684
H           6.21741081      0.35813458      3.47834550
H           6.49811720     -2.02595686      3.23963906
H           5.07457532     -2.34943519      4.24458324
H           6.19736621     -1.39297742      6.20355380
H           7.60484032     -0.97034628      5.21235494
H           8.08585170     -2.99813463      6.44393867
H           7.95277116     -3.38427122      4.71732727
H           5.96772655     -4.65527954      5.06226247
H           5.04400320     -5.05090679      7.25106328
H           5.44412067     -2.82113429      8.58968265
H           7.15426988     -3.06288085      8.21717018
H           6.92593416     -5.40884985      9.29341576
H           5.94564177     -5.15260172     11.47073357
H           4.68733982     -2.59169382     10.34937877
H           5.49846452     -2.66849099     11.92059561
H           3.13141408     -2.92767157     12.30516072
H           3.93648132     -4.47083645     12.61445968
H           2.34490999     -5.37278057     11.25286599
H           3.27673149     -4.68223825      9.92312230
H           1.01076564     -3.28860494     11.39551128
H           0.82526951     -4.14777181      9.85682702
H           2.72374879     -1.80521424     10.21636432
H           1.04769191     -1.62450842      9.68812347
H           1.45181188     -3.00799638      7.72931046
H           3.10420301     -3.35289311      8.27087653
H           3.74260297     -1.03653572      8.05247068
H           2.07972695     -0.54938284      7.67692121
H           3.89692272     -3.23868721      6.47993011
          52
 Energy =    -62.36736151 a.u.  #Cluster:   67
C           6.17146295      1.66620431      3.22789894
C           6.86755617      1.27557481      4.52388667
C           6.09137304      0.20761403      5.28410862
C           6.13008820     -1.14978693      4.59354691
C           5.38795486     -2.18018528      5.42940025
C           5.38884580     -3.55093344      4.82515223
C           5.13418879     -4.65332031      5.50538424
C           4.81776071     -4.68685446      6.97401501
C           5.29588202     -5.95757144      7.60767125
C           4.60910434     -6.73356021      8.42532114
C           3.22068285     -6.49835955      8.93671770
C           3.22933114     -6.39875251     10.46292082
C           3.85958521     -5.09300218     10.93842861
C           2.87286907     -3.93531954     10.85858764
C           3.51125190     -2.61956377     11.29524892
C           4.34022732     -1.98554640     10.18423206
C           3.46308058     -1.32879091      9.12562761
C           4.31905808     -0.70287805      8.04483584
O           5.53388981     -0.73526904      8.10699373
O           3.70631146     -0.16767120      7.04006560
H           5.16632125      2.02825463      3.44506785
H           6.09908724      0.80477523      2.56478003
H           6.72988949      2.45246327      2.72185208
H           6.96645653      2.16224614      5.15157650
H           7.86552314      0.89538011      4.29922266
H           5.04919711      0.51846107      5.39229217
H           6.50788856      0.08985323      6.28798875
H           7.16895481     -1.46062293      4.46737562
H           5.66528808     -1.08172508      3.60890765
H           4.35446992     -1.84339433      5.55844590
H           5.84797181     -2.22205205      6.42075820
H           5.60046299     -3.58783597      3.76118104
H           5.13593256     -5.62263285      5.01717289
H           3.73982270     -4.57646384      7.11580663
H           5.30195892     -3.83806689      7.46591902
H           6.30898627     -6.23125312      7.32674408
H           5.06792968     -7.63548680      8.82230929
H           2.58698558     -7.33747201      8.64232917
H           2.80289266     -5.58277278      8.51723822
H           3.79221829     -7.24579860     10.85779986
H           2.20759011     -6.45186831     10.84059180
H           4.73748211     -4.87208909     10.32830156
H           4.17948164     -5.19933725     11.97621862
H           2.02543273     -4.16225915     11.50738094
H           2.50517350     -3.83779985      9.83591016
H           4.14330987     -2.81544135     12.16297893
H           2.73286750     -1.91221864     11.58567401
H           4.96087534     -2.74679208      9.70680784
H           4.99857853     -1.22265204     10.60409813
H           2.83986891     -0.56059877      9.58574649
H           2.80642758     -2.06971705      8.66764732
H           2.75049120     -0.21901247      7.11667775
          52
 Energy =    -62.36735346 a.u.  #Cluster:   68
C          10.34148890     -2.12721797      9.20028869
C           9.06254367     -1.32594922      9.38458630
C           8.32051699     -1.16731770      8.06668469
C           7.03370717     -0.37871470      8.24718621
C           6.27121622     -0.26116116      6.93065102
C           5.01361415      0.53018465      7.11040188
C           3.78245979      0.12148042      6.86632313
C           3.37461545     -1.20411084      6.30113680
C           2.62988287     -1.03621033      5.00082679
C           2.24886766     -2.03317408      4.22301412
C           2.44912544     -3.47686359      4.56981311
C           1.21427629     -4.02525714      5.29624039
C           1.55392260     -5.21931871      6.18106938
C           2.37909758     -4.76746877      7.37621924
C           2.65128236     -5.87994581      8.37569915
C           3.31989407     -5.34388618      9.63830520
C           4.68435465     -4.71913201      9.35050678
C           4.53814235     -3.31471173      8.79048574
O           3.52613649     -2.66266913      8.97386515
O           5.53006433     -2.84740189      8.10727056
H          10.10133308     -3.11710848      8.81193733
H          10.86577947     -2.23504363     10.14877053
H          10.99339080     -1.61969856      8.48911812
H           9.30424070     -0.33747310      9.77850467
H           8.41330530     -1.83503191     10.09888576
H           8.07887205     -2.15555996      7.66979305
H           8.96140396     -0.65269267      7.34813235
H           7.26862743      0.61906715      8.62117059
H           6.40521756     -0.89186345      8.97743741
H           6.04664107     -1.26499668      6.56740214
H           6.91483905      0.23730826      6.20193199
H           5.18205407      1.52464234      7.51509581
H           2.94568425      0.78965606      7.05138537
H           2.72744990     -1.71467612      7.02244359
H           4.24756083     -1.84074201      6.13882024
H           2.42145254     -0.00776892      4.72395612
H           1.70489295     -1.84045330      3.30388876
H           3.31533243     -3.56607633      5.22666125
H           2.63249601     -4.06883191      3.67272207
H           0.45952244     -4.30418252      4.56085387
H           0.80494624     -3.23867509      5.93346386
H           2.11477245     -5.95719907      5.60521186
H           0.63124222     -5.67884915      6.53933091
H           1.84851411     -3.95903075      7.88521325
H           3.32972693     -4.37739968      7.01280394
H           3.29566220     -6.63061548      7.91442393
H           1.70477570     -6.35169808      8.64573213
H           3.43009904     -6.15797589     10.35469992
H           2.68098025     -4.57171733     10.07616839
H           5.24035885     -5.34155801      8.64846395
H           5.25788037     -4.65027792     10.27576455
H           6.25706830     -3.47003430      8.03560536
          52
 Energy =    -62.36733792 a.u.  #Cluster:   69
C           7.58737408      1.30103575      4.21484214
C           7.23824983      0.67330199      5.55651159
C           5.80172242      0.16266524      5.59053093
C           5.56986522     -1.06015386      4.70891032
C           6.27411406     -2.30129880      5.25876560
C           6.05995083     -3.46958482      4.34625320
C           5.24412151     -4.48714758      4.55277815
C           4.40909780     -4.71657880      5.77571136
C           5.00123828     -5.79660028      6.64832767
C           4.39356626     -6.32713539      7.69237952
C           3.03208894     -5.93288645      8.17868286
C           3.00287832     -5.75607737      9.69683444
C           4.05509519     -4.76686796     10.19119303
C           3.97034652     -3.42696837      9.47317862
C           4.80710684     -2.36487390     10.17373065
C           4.99725931     -1.11971350      9.31453677
C           3.66710424     -0.51230887      8.87113589
C           3.11695289     -1.25475948      7.66347767
O           3.87163479     -1.78198997      6.86551274
O           1.83670027     -1.29938891      7.51960736
H           6.89841546      2.11848190      4.00089334
H           7.51142687      0.56013663      3.41952111
H           8.60436658      1.69022816      4.23458090
H           7.36250109      1.42335876      6.33847857
H           7.92356280     -0.15030670      5.76008195
H           5.13983562      0.96803001      5.26713138
H           5.54077267     -0.11090570      6.61398650
H           5.92571606     -0.86384131      3.69695961
H           4.49847529     -1.26559717      4.67163737
H           5.88764270     -2.50701472      6.25768054
H           7.34384099     -2.10007664      5.33591860
H           6.61790834     -3.40676209      3.41609430
H           5.16861816     -5.27683937      3.81068031
H           3.40208584     -5.01548305      5.47572109
H           4.32137971     -3.79374153      6.35593877
H           5.99251127     -6.12761460      6.35573675
H           4.87391344     -7.10663039      8.27652422
H           2.31436594     -6.71137464      7.90848704
H           2.72304686     -5.00469972      7.69889012
H           3.17732231     -6.72338460     10.17009097
H           2.01480312     -5.39692203      9.98748899
H           5.05166293     -5.18655144     10.04339159
H           3.90769388     -4.60251544     11.26000953
H           2.92701571     -3.10911378      9.43921069
H           4.33632440     -3.53929045      8.45233281
H           5.78638737     -2.78814209     10.40404553
H           4.32041046     -2.08808788     11.11069419
H           5.55707249     -1.38968111      8.41456379
H           5.57541788     -0.38581588      9.87598387
H           3.82346227      0.52564770      8.57484967
H           2.95002536     -0.53464090      9.69213113
H           1.37069848     -0.84069077      8.22455577
          52
 Energy =    -62.36731702 a.u.  #Cluster:   70
C           2.06930779     -0.08560618      5.00362178
C           3.34361317     -0.87178930      5.27130136
C           4.39161113     -0.58598043      4.20629561
C           5.71502403     -1.28046988      4.49771322
C           5.58673812     -2.80379749      4.43733527
C           6.93690720     -3.44367319      4.55708699
C           7.49335718     -3.77616898      5.70683117
C           6.82876413     -3.60176391      7.04454742
C           7.61958199     -4.23684394      8.14551042
C           7.87669899     -3.70705523      9.32747188
C           7.37432390     -2.39031960      9.83633304
C           6.23580804     -2.61240649     10.83424097
C           4.99150665     -3.13787455     10.13588901
C           3.91309221     -3.54336311     11.13221774
C           2.58764699     -3.77514337     10.41418957
C           1.86845505     -2.45345059     10.15298922
C           0.99211862     -2.53168363      8.90885437
C           1.86480309     -2.49275686      7.66777983
O           3.07473525     -2.38761549      7.74245598
O           1.26327299     -2.54596851      6.52453907
H           2.27095442      0.98337904      5.06873970
H           1.30199974     -0.35346719      5.72908729
H           1.70350945     -0.31461357      4.00247532
H           3.10566141     -1.93695107      5.28283435
H           3.74243921     -0.60284980      6.25147845
H           4.55651576      0.49208836      4.15917987
H           4.01794712     -0.92261522      3.23719771
H           6.06126052     -0.99064911      5.49120977
H           6.45562531     -0.96482267      3.76120389
H           5.12425721     -3.07708127      3.48752132
H           4.94555349     -3.14176625      5.25305039
H           7.47508129     -3.57553444      3.62398132
H           8.48813455     -4.20852683      5.73864836
H           5.83346884     -4.05607136      7.00728737
H           6.69010951     -2.53684542      7.24540118
H           8.01025182     -5.21914523      7.89521344
H           8.45805615     -4.26751109     10.05428863
H           7.00234237     -1.77631692      9.01479596
H           8.18735627     -1.85969194     10.33416713
H           5.99549933     -1.67356627     11.33413321
H           6.55803495     -3.33640042     11.58512980
H           5.25367083     -4.00770426      9.53071045
H           4.59500713     -2.36809130      9.46891451
H           3.78583398     -2.75076780     11.87189464
H           4.23111696     -4.45101503     11.64650620
H           1.94308312     -4.42740411     11.00324512
H           2.79891606     -4.26607355      9.46228490
H           2.61222067     -1.67044791      9.98567723
H           1.27542895     -2.18282580     11.02633559
H           0.30448912     -1.68612315      8.87177777
H           0.40580266     -3.45072823      8.91826524
H           0.31047772     -2.63312739      6.61173986
          52
 Energy =    -62.36722744 a.u.  #Cluster:   71
C           4.46968091      2.11558569      6.30380681
C           4.38541316      0.77653194      5.58990016
C           5.68529509     -0.00048233      5.72564484
C           5.56806887     -1.37978935      5.09609546
C           6.88304162     -2.15813272      5.18560004
C           7.30360048     -2.34547292      6.61500909
C           6.89397030     -3.34090960      7.37866049
C           5.97544656     -4.43571546      6.91567626
C           5.45614681     -5.26774922      8.04689804
C           4.26727364     -5.83853525      8.09830518
C           3.20128054     -5.76045672      7.04714577
C           1.81523521     -5.67985532      7.68075518
C           1.60219551     -4.36503015      8.42686412
C           1.46193496     -3.16999507      7.47323962
C           2.65231181     -2.22385434      7.57021599
C           2.64418791     -1.45002607      8.88541344
C           4.04265210     -0.96487891      9.24773718
C           4.91285016     -2.15690051      9.60715011
O           4.44487621     -3.27733511      9.68197676
O           6.16915752     -1.93013154      9.81216705
H           5.28034333      2.70836279      5.87986527
H           4.67015251      1.95145910      7.36274487
H           3.53510395      2.66505166      6.19993611
H           4.16911667      0.93500312      4.53233344
H           3.57738095      0.18536225      6.02446613
H           5.92312860     -0.10491896      6.78607374
H           6.49259669      0.55243945      5.24136698
H           5.28432101     -1.27047843      4.04841132
H           4.78559497     -1.93900327      5.61024938
H           7.65121041     -1.60523543      4.64319090
H           6.74804266     -3.13244283      4.71340159
H           7.95916310     -1.58028441      7.01695839
H           7.21319701     -3.40725871      8.41436770
H           6.52470838     -5.08107644      6.22153139
H           5.14071239     -4.00428864      6.35989443
H           6.14867576     -5.37988952      8.87615247
H           3.98786680     -6.42933419      8.96636657
H           3.25160128     -6.65433592      6.42068761
H           3.36234769     -4.89117984      6.40813144
H           1.70646657     -6.51097467      8.37969578
H           1.05382000     -5.77324540      6.90533188
H           2.45327668     -4.19679543      9.09226271
H           0.70526617     -4.45389224      9.03880593
H           0.55725240     -2.60810812      7.70791803
H           1.37807909     -3.53973185      6.45042637
H           2.63684221     -1.51863970      6.73864899
H           3.56768713     -2.81186668      7.50204466
H           2.30377866     -2.11129824      9.68525066
H           1.95183622     -0.61144701      8.81063223
H           4.00295256     -0.28413193     10.09834182
H           4.48576216     -0.43453868      8.40450925
H           6.39668437     -1.00278490      9.70404854
          52
 Energy =    -62.36715931 a.u.  #Cluster:   72
C           6.29266321      1.57205503      6.90690230
C           5.96837162      0.67562065      5.71944341
C           6.99578643     -0.44111567      5.55391008
C           6.84235259     -1.54266259      6.59977191
C           5.64927185     -2.45904074      6.31241546
C           5.89621916     -3.35089834      5.13248901
C           6.31100446     -4.60333159      5.18654198
C           6.59440970     -5.38922186      6.43435145
C           5.78939125     -6.65733008      6.46272530
C           4.98947252     -7.05342281      7.43551262
C           4.70520680     -6.31362906      8.70706096
C           3.23095790     -5.91463243      8.78924016
C           2.82209561     -5.11270187      7.55927763
C           1.52272353     -4.33965126      7.76429288
C           1.66772668     -3.16882736      8.73465924
C           2.72813599     -2.18433864      8.26628109
C           2.73020133     -0.88170278      9.06298070
C           3.88510738     -0.05071939      8.54584416
O           3.71475197      0.85453521      7.75079893
O           5.07056862     -0.39812794      8.92655529
H           7.24787106      2.07180210      6.74953586
H           6.34404690      0.97702676      7.81884571
H           5.50535263      2.31397057      7.03227068
H           5.95230064      1.28334780      4.81428786
H           4.97515090      0.24548394      5.86143247
H           7.99238100     -0.00422757      5.63668113
H           6.89546880     -0.88253451      4.56170863
H           6.70456012     -1.08693943      7.58152386
H           7.74689024     -2.15111240      6.62503202
H           4.76719548     -1.84574598      6.12385472
H           5.46096437     -3.06545947      7.19837755
H           5.73461475     -2.88128381      4.16684756
H           6.46410190     -5.16765617      4.27097139
H           6.38671401     -4.78568607      7.31680838
H           7.65649010     -5.65185252      6.44087044
H           5.90764227     -7.26765211      5.57170508
H           4.44368894     -7.98819007      7.33918670
H           5.30945234     -5.40741698      8.75891574
H           4.95205584     -6.94678040      9.56148077
H           3.08169097     -5.31317993      9.68614830
H           2.61175484     -6.80969108      8.86196551
H           2.70047333     -5.79398047      6.71598780
H           3.62055209     -4.41179182      7.31399123
H           0.75995774     -5.02506499      8.13715824
H           1.19570150     -3.94411581      6.80110931
H           1.93293544     -3.53686718      9.72690395
H           0.70981598     -2.65088283      8.80520979
H           2.56251973     -1.95541864      7.21158130
H           3.71411452     -2.63667216      8.37511254
H           2.86219055     -1.11209197     10.12000927
H           1.78813658     -0.35423052      8.91385204
H           5.06778360     -1.12931073      9.54838004
          52
 Energy =    -62.36700514 a.u.  #Cluster:   73
C           8.11333709     -0.88784495      8.87038621
C           6.62365113     -1.18561322      8.83513033
C           5.89764824     -0.27163819      7.86069490
C           4.40668404     -0.56220050      7.85435387
C           3.66973970      0.28519439      6.82017497
C           2.18464282      0.06814000      6.89802207
C           1.54568525     -1.00709312      6.47132992
C           2.19178192     -2.18976029      5.80100204
C           3.00999955     -1.79858470      4.59964443
C           4.03094755     -2.48579313      4.12101463
C           4.55638901     -3.76530671      4.69989705
C           5.82093698     -3.51485845      5.52316782
C           6.41567235     -4.80408148      6.09595587
C           6.00719537     -5.05385560      7.54469595
C           4.51593455     -5.31397933      7.69360007
C           4.10407718     -5.61163509      9.13414111
C           4.40666961     -4.46509902     10.09855213
C           3.74314881     -3.16759834      9.67816661
O           3.01130285     -3.09896772      8.70944525
O           4.02633622     -2.11849942     10.38213957
H           8.27508662      0.14387450      9.18266297
H           8.53749463     -1.02462520      7.87559462
H           8.61990313     -1.55400260      9.56724999
H           6.19711751     -1.05666485      9.83141630
H           6.46872096     -2.22150347      8.52780764
H           6.29498397     -0.42846366      6.85596113
H           6.06429682      0.76970517      8.14318473
H           3.99649205     -0.37880639      8.84994617
H           4.25972101     -1.61512212      7.61269016
H           4.04182993      0.01181331      5.83118718
H           3.90166613      1.33603834      6.99793917
H           1.62889589      0.86075808      7.38896464
H           0.47113380     -1.07998014      6.60357845
H           1.41780777     -2.89245195      5.48429564
H           2.82870726     -2.70544801      6.52466160
H           2.68362581     -0.88721142      4.10875237
H           4.57542864     -2.12262117      3.25457156
H           4.80420817     -4.45598797      3.89146505
H           3.79685240     -4.22732533      5.32818358
H           5.58355079     -2.83543752      6.34273752
H           6.55229005     -3.02955179      4.87555362
H           7.50384272     -4.74513818      6.05639343
H           6.09491497     -5.64807729      5.48268060
H           6.28398661     -4.17688807      8.13255234
H           6.55574143     -5.91561857      7.92961550
H           4.24340432     -6.16429056      7.06651226
H           3.96096482     -4.44153305      7.34905294
H           4.62515066     -6.50898324      9.47208081
H           3.02989517     -5.80518597      9.15363113
H           5.48266171     -4.29665747     10.15308325
H           4.06067023     -4.73185598     11.09770556
H           4.60930719     -2.31540923     11.11995983
          52
 Energy =    -62.36681710 a.u.  #Cluster:   74
C           5.19965588      2.15392235      4.75531817
C           4.91846208      0.74355730      5.24809162
C           3.92843987      0.03190139      4.33658676
C           3.61581008     -1.37393600      4.83326852
C           4.77910406     -2.33036703      4.59986877
C           4.51911155     -3.66288044      5.23160761
C           5.41427750     -4.43871665      5.81437909
C           6.88239664     -4.14750136      5.94316853
C           7.35725394     -4.43812951      7.33672012
C           7.72843735     -3.54405465      8.23462624
C           7.73622393     -2.05435858      8.07020588
C           6.63939705     -1.43025229      8.93518397
C           5.26094486     -1.76618712      8.38544582
C           4.16362324     -1.39710033      9.37289699
C           2.76603571     -1.52982793      8.77340419
C           2.49882472     -2.89452308      8.14739518
C           2.61902851     -4.06212462      9.11875497
C           2.70349373     -5.37233488      8.35001710
O           3.04228131     -5.39127808      7.18203276
O           2.42605810     -6.45431771      8.99912475
H           5.61911340      2.11451815      3.75001515
H           5.90552651      2.65578458      5.41552786
H           4.27153205      2.72489595      4.72658141
H           4.50324172      0.78513394      6.25641856
H           5.85221379      0.18128168      5.28327420
H           4.34259357     -0.02806627      3.32828114
H           3.00757479      0.61643513      4.30027708
H           2.73339382     -1.76147010      4.32230755
H           3.40463631     -1.32498228      5.90231671
H           5.69007587     -1.89870111      5.01719253
H           4.92386213     -2.45207880      3.52302126
H           3.48108206     -3.98283546      5.20427004
H           5.09287398     -5.37369934      6.26548480
H           7.07761711     -3.10731855      5.68237250
H           7.42831684     -4.78602325      5.24298122
H           7.35499382     -5.49397102      7.59160416
H           8.02991144     -3.87268188      9.22570850
H           7.56131223     -1.77629617      7.03040731
H           8.70519206     -1.66125670      8.38264167
H           6.76208891     -0.34742865      8.96668444
H           6.72425271     -1.82241169      9.95049545
H           5.21643807     -2.83665444      8.18042042
H           5.10378556     -1.22666147      7.45044240
H           4.31031262     -0.36379570      9.69200711
H           4.25155416     -2.03968463     10.25044293
H           2.65266455     -0.77260275      7.99533398
H           2.02617578     -1.34234876      9.55327028
H           3.20966457     -3.06006994      7.33557602
H           1.49602220     -2.89261991      7.71711764
H           1.77755707     -4.07841780      9.81124471
H           3.53769645     -3.96645531      9.69895939
H           2.17958451     -6.28284167      9.91240990
          52
 Energy =    -62.36678702 a.u.  #Cluster:   75
C           4.23365728     -4.46134081      5.14163232
C           4.35730891     -3.80072026      3.77600742
C           4.95319133     -2.39706618      3.84270154
C           6.35389159     -2.37053185      4.46083306
C           6.33038724     -1.94417669      5.92375151
C           7.69989406     -2.01244832      6.53818228
C           7.95955233     -2.00264150      7.83184543
C           6.92713054     -1.91438310      8.91778076
C           7.00204111     -3.10263892      9.83543091
C           5.97584993     -3.82642987     10.24226795
C           4.54715286     -3.60031708      9.85425991
C           3.80142918     -4.90777886      9.60413204
C           2.53121806     -4.67246735      8.79335950
C           1.45238242     -3.87200888      9.53745346
C           0.98951313     -2.64559166      8.74424014
C           1.82334570     -1.39937281      9.05576878
C           2.07209703     -0.53941990      7.81975669
C           3.12130149     -1.18668716      6.93536880
O           3.56998850     -2.28916331      7.18558515
O           3.53296901     -0.51656417      5.91199583
H           3.67422812     -5.39133600      5.05922421
H           3.71789186     -3.79265834      5.83063962
H           5.22043151     -4.68210322      5.54490542
H           3.36702296     -3.73646158      3.32270887
H           4.98828281     -4.42192927      3.13773806
H           4.29858975     -1.75256902      4.43429064
H           4.99470609     -1.99945831      2.82845346
H           6.98489871     -1.66836929      3.91430388
H           6.80348174     -3.36182994      4.38108946
H           5.64393124     -2.58276246      6.48277790
H           5.94630440     -0.92114126      5.98387376
H           8.51109514     -2.07103382      5.81848960
H           8.98168724     -2.07084699      8.19228016
H           5.93201419     -1.83254688      8.48218717
H           7.11697448     -1.01182667      9.50669152
H           8.00932658     -3.34130689     10.16440149
H           6.12878756     -4.66531253     10.91534252
H           4.50719849     -3.00223414      8.94165942
H           4.04038779     -3.04308334     10.64542737
H           3.55469125     -5.38118426     10.55534517
H           4.45227314     -5.57791880      9.03985162
H           2.12356080     -5.63608606      8.48798765
H           2.81398449     -4.12561448      7.89214138
H           1.84009474     -3.53885758     10.50098595
H           0.59605911     -4.51900359      9.72659479
H          -0.05628677     -2.43689465      8.96937441
H           1.06488678     -2.87441810      7.68001457
H           2.79476999     -1.70459998      9.44447389
H           1.32287002     -0.81247349      9.82570455
H           2.42635017      0.44927553      8.11317182
H           1.14764678     -0.41750874      7.25447104
H           3.10320220      0.33755399      5.82431009
          52
 Energy =    -62.36672031 a.u.  #Cluster:   76
C           4.05301407      1.70507249      6.87865764
C           4.48348619      0.79879693      5.73595537
C           5.62860821     -0.10829456      6.15949805
C           6.02096197     -1.06557588      5.04449323
C           7.11820790     -2.03302116      5.49683216
C           6.63955458     -2.88734213      6.63477077
C           5.91738059     -3.98028205      6.47563539
C           5.51727530     -4.52939882      5.12968761
C           4.77654343     -5.82783620      5.25305991
C           3.50516294     -5.92223729      5.59583471
C           2.58730185     -4.77423547      5.90023736
C           1.70407684     -5.10283825      7.10128683
C           2.51419727     -5.15635503      8.39429815
C           2.67454388     -3.77937316      9.02431276
C           3.55943276     -3.84999031     10.26422373
C           3.37618826     -2.65244897     11.19284953
C           3.55078680     -1.30741316     10.47773684
C           4.87527899     -1.28802528      9.74446062
O           4.96994496     -1.79735804      8.64094906
O           5.88922343     -0.74984034     10.33145697
H           3.72004493      1.09946357      7.72162293
H           3.23767869      2.35538870      6.56515209
H           4.89516897      2.31897530      7.19795729
H           4.80062720      1.40533679      4.88592802
H           3.63958165      0.18060432      5.42465534
H           5.31707596     -0.68713812      7.03249219
H           6.49174595      0.49967293      6.43698645
H           6.37188111     -0.49322098      4.18462858
H           5.14170688     -1.63799983      4.74399000
H           7.98997872     -1.45373444      5.80347704
H           7.39346167     -2.67011300      4.65427549
H           6.85517323     -2.52062925      7.63317184
H           5.55940932     -4.54199125      7.33208300
H           6.41241428     -4.66176913      4.51827788
H           4.88291665     -3.79355866      4.62952769
H           5.36080336     -6.72278993      5.06707525
H           3.03031604     -6.89640558      5.67402292
H           1.95026131     -4.59020425      5.03152817
H           3.15880256     -3.86918607      6.10666609
H           1.23161523     -6.06987525      6.92269998
H           0.92403944     -4.34788780      7.20545397
H           3.50142059     -5.57412792      8.18593192
H           2.01325494     -5.80381026      9.11563553
H           1.68823342     -3.40437883      9.30441727
H           3.11933961     -3.09121038      8.30244108
H           4.60140555     -3.92401270      9.94853595
H           3.30690900     -4.75465396     10.82003762
H           4.10422331     -2.71572650     12.00298323
H           2.37389936     -2.69191594     11.62270037
H           3.50320456     -0.50489042     11.21315668
H           2.74525478     -1.18147779      9.75453681
H           5.67124794     -0.39308140     11.19721736
          52
 Energy =    -62.36668159 a.u.  #Cluster:   77
C           6.76807818     -2.84081663      7.91459394
C           7.07381304     -1.35305922      7.94971067
C           5.95302022     -0.54958914      7.30745306
C           6.22284048      0.94414665      7.40969603
C           5.11296030      1.75706341      6.75051049
C           5.09619522      1.54431758      5.26718951
C           4.03529121      1.30785323      4.51893297
C           2.61923640      1.18550688      5.00865126
C           1.95128490     -0.00761008      4.38790067
C           1.66586054     -1.13790483      5.00598870
C           1.94630092     -1.46613757      6.44088397
C           2.49873766     -2.88000162      6.57505680
C           2.78819263     -3.22481306      8.02612555
C           3.29979607     -4.65048521      8.16374133
C           3.69059712     -4.95156548      9.60284419
C           4.15868438     -6.39109400      9.81144013
C           5.30069751     -6.79848541      8.87934864
C           6.46641319     -5.83268618      8.96195116
O           6.54868510     -5.00078925      9.84730322
O           7.35350736     -5.89838330      8.02398549
H           5.83942062     -3.03004424      8.45234775
H           7.56249109     -3.41766850      8.38823341
H           6.65151700     -3.17349499      6.88340715
H           8.00542848     -1.15563516      7.41702550
H           7.19117256     -1.03148337      8.98605660
H           5.01189914     -0.78048632      7.81162686
H           5.86102346     -0.83324955      6.25707703
H           7.17186867      1.16951709      6.91954193
H           6.29975149      1.21751545      8.46287542
H           5.28004816      2.81740960      6.95433063
H           4.15692565      1.46820787      7.18902899
H           6.07837892      1.61053731      4.80645834
H           4.14062080      1.17692750      3.44580241
H           2.07031133      2.08596971      4.72005990
H           2.60221801      1.10852085      6.09523704
H           1.72804624      0.10805359      3.33150497
H           1.18388767     -1.94634505      4.46272252
H           1.01980677     -1.40199286      7.01823112
H           2.66418970     -0.76355621      6.86570934
H           3.42120985     -2.96540920      5.99770701
H           1.77106509     -3.58887830      6.17554672
H           1.87772013     -3.10549368      8.61651394
H           3.54465629     -2.53754957      8.41114932
H           4.16762242     -4.76753100      7.51318628
H           2.52459681     -5.34762407      7.84015066
H           2.82852431     -4.76665703     10.24569414
H           4.48892910     -4.26770413      9.89797989
H           3.31481997     -7.06392025      9.65137274
H           4.49705053     -6.49762690     10.84370723
H           4.94756895     -6.83624583      7.84855023
H           5.64767690     -7.79636095      9.14976523
H           7.16961802     -6.59442303      7.38682784
          52
 Energy =    -62.36665697 a.u.  #Cluster:   78
C           3.36560340     -0.39194068      3.74335834
C           4.47948923     -0.95861361      4.61158572
C           5.82009625     -0.90581618      3.89402862
C           6.95613817     -1.43936896      4.75801052
C           6.82324686     -2.94098285      5.01655838
C           8.04491551     -3.46120999      5.70881346
C           8.12308378     -3.81807053      6.97734195
C           6.98790937     -3.80810624      7.96171798
C           7.15231977     -4.87813162      8.99854497
C           7.07917100     -4.71353555     10.30727024
C           6.76937952     -3.42936732     11.01501922
C           5.31338549     -3.40455551     11.48562251
C           4.36017738     -3.53159502     10.30648347
C           2.91526610     -3.30339361     10.72753393
C           1.93502016     -3.66560235      9.61732764
C           2.20605296     -2.88435757      8.34049109
C           1.12988082     -3.13365075      7.28400355
C           1.60172618     -2.51523597      5.98580036
O           1.17372142     -1.45009660      5.58629776
O           2.53894095     -3.14830473      5.35597970
H           2.40426666     -0.50895413      4.24715096
H           3.33511835     -0.92715919      2.79466224
H           3.54657673      0.66428202      3.54794104
H           4.23975462     -1.99466778      4.85812805
H           4.54629036     -0.38853953      5.53977984
H           6.03231589      0.12987061      3.62217705
H           5.76007365     -1.49937446      2.97950135
H           6.96032576     -0.90916390      5.71187992
H           7.90608481     -1.25936743      4.25204512
H           6.70468670     -3.44582265      4.05512501
H           5.93654746     -3.12760648      5.62287256
H           8.93230458     -3.48623804      5.08264978
H           9.06958960     -4.15058242      7.39283989
H           6.04277654     -3.96128860      7.43454244
H           6.94005150     -2.82783085      8.44240325
H           7.36279624     -5.86072505      8.58614585
H           7.20212557     -5.56838763     10.96613846
H           6.92623389     -2.58244440     10.34511421
H           7.42595071     -3.31976280     11.87936258
H           5.11910110     -2.46261775     12.00005302
H           5.14109307     -4.22684668     12.18181661
H           4.45147199     -4.52778344      9.86945057
H           4.63962572     -2.79470735      9.55239414
H           2.78467954     -2.25351589     10.99598879
H           2.70401768     -3.91559393     11.60603806
H           0.91739309     -3.45587570      9.95134255
H           2.01703559     -4.73258510      9.40122532
H           3.16599151     -3.19410651      7.92358998
H           2.24879171     -1.81781736      8.56922486
H           0.18846949     -2.68529421      7.60087133
H           1.00252626     -4.20982565      7.16437865
H           2.79180817     -3.96756849      5.78902242
          52
 Energy =    -62.36655522 a.u.  #Cluster:   79
C           2.22725806      0.81715408      3.95947918
C           2.79019680     -0.58311843      3.76849555
C           3.83453950     -0.59577133      2.66068131
C           4.38746659     -1.98844257      2.37287483
C           5.36713925     -2.46849909      3.44353366
C           4.68318204     -2.85717927      4.71771313
C           5.03725467     -2.49551947      5.93799431
C           6.22016712     -1.62995768      6.28039252
C           7.41964360     -2.47813479      6.62456146
C           7.53648500     -3.14740461      7.75657270
C           6.50605220     -3.14461286      8.84269549
C           7.11137104     -3.31603296     10.23041117
C           6.04446142     -3.20333399     11.31479008
C           5.12407685     -4.41761161     11.33176096
C           3.95497674     -4.25544036     12.29909083
C           2.96200905     -3.16576433     11.89950809
C           2.34902150     -3.40832025     10.51870883
C           3.29355116     -2.91350518      9.44071720
O           3.91420506     -1.87531489      9.58944774
O           3.45062668     -3.63801003      8.38434897
H           3.03255167      1.50201861      4.22528285
H           1.47927401      0.82366359      4.75094706
H           1.76751202      1.15880745      3.03198371
H           1.98218695     -1.26719150      3.50388823
H           3.23705247     -0.91899877      4.70390223
H           4.65900124      0.06564499      2.93484291
H           3.37049176     -0.20641674      1.75235666
H           4.90836267     -1.96504311      1.41528982
H           3.55854869     -2.69503441      2.30195537
H           6.10129079     -1.68279553      3.62867133
H           5.89509440     -3.34415790      3.05818173
H           3.82119989     -3.50298422      4.57351016
H           4.47818964     -2.85881508      6.79601921
H           5.96322664     -1.00940865      7.14200234
H           6.46324213     -0.97932969      5.44046669
H           8.18652210     -2.53988704      5.86031842
H           8.40993805     -3.76081191      7.95532902
H           5.79795563     -3.95704350      8.65662974
H           5.94617904     -2.20540758      8.81401260
H           7.86381253     -2.54071337     10.38290759
H           7.59576072     -4.29177834     10.29819398
H           5.45952077     -2.30086361     11.12671295
H           6.52029439     -3.11058552     12.29203948
H           5.70879726     -5.28932387     11.63054389
H           4.73763876     -4.60479578     10.32945731
H           4.35207334     -4.02234444     13.28864214
H           3.41710343     -5.20347571     12.35579095
H           3.46134552     -2.19384383     11.87983190
H           2.17385235     -3.13185545     12.65182374
H           1.41745942     -2.84761628     10.43568978
H           2.13300031     -4.46855032     10.38483967
H           2.91161988     -4.43202978      8.38677398
          52
 Energy =    -62.36648031 a.u.  #Cluster:   80
C           6.10210588      1.33646794      4.23388458
C           5.45420622      0.84697057      5.52078044
C           6.36779110     -0.08707136      6.31022573
C           6.66291297     -1.40330333      5.59762268
C           5.42891449     -2.29356952      5.47529957
C           5.77406778     -3.57576295      4.78228105
C           5.45731248     -4.79615952      5.17385338
C           4.67195054     -5.15266012      6.39691815
C           5.37342432     -6.18772503      7.23524878
C           4.81744201     -6.84406172      8.23720893
C           3.41007238     -6.64654628      8.71414151
C           3.37880922     -5.82485964     10.00507680
C           3.98856176     -4.44894423      9.78226301
C           3.78487135     -3.53389704     10.98051524
C           4.60723825     -2.25177137     10.86888902
C           4.40083036     -1.51239961      9.55128083
C           2.96011299     -1.07916149      9.31223035
C           2.81229619     -0.52169854      7.90593205
O           3.66773748     -0.71871303      7.06569578
O           1.74274161      0.15622461      7.64947629
H           7.05447293      1.81556666      4.46112653
H           5.45276374      2.05580414      3.73734223
H           6.28051010      0.50173984      3.55729474
H           4.52073823      0.33168229      5.28794800
H           5.21916192      1.70997345      6.14517386
H           5.89359429     -0.31552899      7.26652220
H           7.30974617      0.42950875      6.50214037
H           7.42430364     -1.94349360      6.16242893
H           7.05557755     -1.20277668      4.59975200
H           4.66507253     -1.76848730      4.89626607
H           5.02757844     -2.48601794      6.47226756
H           6.35174016     -3.43286650      3.87291201
H           5.77625833     -5.65356951      4.58802180
H           3.69256415     -5.53845300      6.09926702
H           4.50104082     -4.25985595      7.00148611
H           6.40834133     -6.36991371      6.96376103
H           5.39598358     -7.56175727      8.81110899
H           2.94563643     -7.61653759      8.89931810
H           2.83234311     -6.11730613      7.95488604
H           3.93511334     -6.34806041     10.78441659
H           2.34443236     -5.70744537     10.33053728
H           3.51609088     -4.00264859      8.90672352
H           5.05755664     -4.55186537      9.58762717
H           4.08461397     -4.06432658     11.88589429
H           2.72507314     -3.28864855     11.06342631
H           5.66407790     -2.51020231     10.95609572
H           4.34282733     -1.58747480     11.69326070
H           4.70719370     -2.15149941      8.72046846
H           5.03811019     -0.62626167      9.54231300
H           2.65883920     -0.33202467     10.04678201
H           2.29360329     -1.93743008      9.40363711
H           1.15924405      0.22295489      8.41073991
          52
 Energy =    -62.36645860 a.u.  #Cluster:   81
C           4.74516016      0.11669323      6.21442933
C           6.07891552     -0.60684029      6.30749031
C           6.54861415     -1.04656626      4.92748506
C           7.89455792     -1.76209555      4.97175663
C           7.78165253     -3.16355407      5.57770217
C           7.00005872     -4.07769319      4.68293395
C           5.76438935     -4.50282304      4.87327461
C           4.88837940     -4.18084399      6.05081345
C           4.59046591     -5.41295321      6.85839322
C           5.12834180     -5.71522136      8.02684992
C           6.14271655     -4.90379750      8.77315493
C           5.57015956     -4.25106166     10.03365569
C           4.51601380     -3.19437111      9.70765604
C           3.11244947     -3.78074500      9.62231385
C           2.08906349     -2.72876902      9.20799705
C           2.16183076     -2.42789569      7.71675906
C           1.17566886     -1.33203373      7.32676298
C           1.62476776      0.00202639      7.89938124
O           2.71839418      0.11781794      8.42194642
O           0.80612412      0.99495769      7.79316796
H           4.01738108     -0.53067226      5.72580890
H           4.85749301      1.02731791      5.62726098
H           4.37266384      0.37076123      7.20678306
H           5.96396489     -1.47957004      6.95092954
H           6.82629035      0.05414155      6.74925471
H           6.63477184     -0.16199669      4.29430412
H           5.80047754     -1.71090963      4.49027784
H           8.58925172     -1.16760531      5.56636531
H           8.28984744     -1.85466366      3.95906557
H           7.31290371     -3.09036551      6.55810939
H           8.78634740     -3.56912614      5.70725956
H           7.53290796     -4.36919285      3.78177540
H           5.30059576     -5.16797963      4.15062965
H           3.94605094     -3.77224155      5.67979216
H           5.35905548     -3.42786064      6.67889750
H           3.88030376     -6.09040599      6.39447758
H           4.83114352     -6.62772588      8.53601830
H           6.54306510     -4.11568745      8.13551745
H           6.96472219     -5.55950453      9.06694292
H           6.39342695     -3.78490293     10.57499953
H           5.12498475     -5.01763001     10.66990082
H           4.77560299     -2.71657536      8.76137192
H           4.51486183     -2.42883687     10.48539414
H           2.84774893     -4.18193166     10.60196599
H           3.09292641     -4.59674653      8.89901095
H           2.28019495     -1.81139164      9.76872403
H           1.08423008     -3.08224490      9.44381153
H           1.95178352     -3.34075714      7.15800253
H           3.16876888     -2.08924081      7.46554998
H           0.18088818     -1.57704421      7.70032556
H           1.12282534     -1.24239412      6.24128857
H          -0.01447471      0.74760476      7.35737533
          52
 Energy =    -62.36634218 a.u.  #Cluster:   82
C           8.55152911     -2.59423692      4.23094025
C           7.55988762     -2.31291681      5.34855873
C           7.76181691     -0.91601735      5.91847549
C           6.84313579     -0.64121174      7.10257494
C           5.38473406     -0.52468942      6.67828628
C           4.49950303     -0.25512698      7.85928899
C           3.21344032     -0.51981873      7.99764966
C           2.24826805     -1.16641386      7.03587461
C           2.78952186     -1.53985203      5.69193986
C           2.90509593     -2.76473074      5.20835390
C           2.57006297     -4.05292388      5.89924096
C           3.73798012     -5.03643546      5.79910837
C           4.93069528     -4.55697978      6.62025896
C           4.71846538     -4.78430617      8.11604623
C           5.37881926     -3.68528598      8.93736494
C           5.18872396     -3.85853093     10.44214215
C           3.71662620     -4.03921704     10.83927708
C           2.86303354     -3.00810862     10.12827969
O           2.23902849     -3.30552845      9.12611050
O           2.86536515     -1.80468598     10.59496110
H           8.41889043     -1.86558618      3.43116019
H           8.39994710     -3.59500661      3.82892880
H           9.56919975     -2.51467636      4.61351379
H           7.69174801     -3.04530221      6.14658481
H           6.54610023     -2.40624278      4.95914828
H           7.56961384     -0.17705285      5.13813694
H           8.80022493     -0.81923415      6.24050913
H           7.14332216      0.28931731      7.58707805
H           6.94078985     -1.45567358      7.82207253
H           5.08047788     -1.45041252      6.19113343
H           5.29341215      0.28909243      5.95374077
H           5.02275958      0.22099268      8.68471951
H           2.73600003     -0.27923643      8.94511941
H           1.41907861     -0.46670701      6.89233151
H           1.83869115     -2.05005524      7.53463248
H           3.07133208     -0.69256154      5.07420051
H           3.29327318     -2.90644534      4.20284838
H           1.69600318     -4.49605955      5.41668427
H           2.33152593     -3.87812715      6.94927175
H           4.02540539     -5.12446534      4.75034626
H           3.42517404     -6.01589197      6.16204217
H           5.06223096     -3.48847496      6.44067849
H           5.83775213     -5.06677851      6.29622622
H           5.11774211     -5.75544714      8.41005774
H           3.64687545     -4.77995382      8.31930927
H           4.95786846     -2.72604528      8.63050851
H           6.44671378     -3.67030363      8.71363203
H           5.57715767     -2.97182423     10.94509674
H           5.75552942     -4.72737771     10.77990360
H           3.62817016     -3.93221932     11.91967432
H           3.38136273     -5.03442197     10.54828384
H           3.40675431     -1.71065485     11.38278147
          52
 Energy =    -62.36627779 a.u.  #Cluster:   83
C           6.08502930      3.06040414      5.06587423
C           5.12425079      1.90060174      5.27360950
C           5.86140203      0.57006648      5.28058707
C           4.89710862     -0.58537784      5.49967710
C           5.60481385     -1.93695835      5.51726165
C           6.40625453     -2.13328960      6.76912875
C           6.60322961     -3.28108722      7.38995341
C           6.05528585     -4.61353177      6.97032434
C           5.56573260     -5.39663455      8.15204368
C           4.41657141     -6.03971390      8.23502725
C           3.36171621     -6.12161307      7.17272447
C           1.96419020     -6.12835552      7.78576141
C           1.63477386     -4.81989410      8.50009010
C           1.49751262     -3.64073875      7.52755518
C           2.66625123     -2.66901085      7.64679118
C           2.58204230     -1.85720766      8.93728443
C           3.95852626     -1.36977810      9.37376541
C           4.78414240     -2.55268740      9.85164171
O           4.28563245     -3.65368423      9.98359011
O           6.03600921     -2.33598271     10.09773171
H           6.60416604      2.94159606      4.11473503
H           6.82208286      3.07461834      5.86887363
H           5.54649952      4.00701221      5.06103561
H           4.38281351      1.89261485      4.47298767
H           4.60494471      2.02296534      6.22559589
H           6.60764707      0.58195501      6.07680159
H           6.37442513      0.43463006      4.32624569
H           4.15652121     -0.57779860      4.69872189
H           4.38012995     -0.44078173      6.44993086
H           6.26693612     -1.99254444      4.64875326
H           4.86348494     -2.73259763      5.43031759
H           6.85497525     -1.22650017      7.16316517
H           7.19627107     -3.31088453      8.29979840
H           6.85483920     -5.18118021      6.48340692
H           5.25073093     -4.47919929      6.24689432
H           6.24573475     -5.39155630      8.99930495
H           4.16629419     -6.57670440      9.14605904
H           3.49846154     -7.04437740      6.60351480
H           3.45356345     -5.28295954      6.48170069
H           1.90478675     -6.94957672      8.50214625
H           1.22642887     -6.29577544      6.99984472
H           2.42713771     -4.60084394      9.22071165
H           0.70376995     -4.95338769      9.05010868
H           0.57656951     -3.09321870      7.73089404
H           1.44759185     -4.02531194      6.50803735
H           2.67372749     -1.99051835      6.79411758
H           3.59504642     -3.23921260      7.63861864
H           2.18730173     -2.49338456      9.73276105
H           1.90185234     -1.01737775      8.79603501
H           3.86875764     -0.64906223     10.18682531
H           4.46535368     -0.88497859      8.53861784
H           6.28375119     -1.42027542      9.94298222
          52
 Energy =    -62.36594208 a.u.  #Cluster:   84
C           9.54078067     -1.97870729     10.24681690
C           9.02518479     -1.05041269      9.15837648
C           7.51635630     -0.88353189      9.25351531
C           6.98073326      0.00222440      8.14044237
C           5.45998469      0.12640681      8.22307098
C           4.94356293      1.01020780      7.12945426
C           4.29606297      0.62640691      6.04509026
C           3.88531710     -0.77352337      5.69173777
C           2.45307734     -0.81290384      5.23696703
C           1.56054010     -1.73585973      5.54139836
C           1.79755552     -2.96036264      6.36953504
C           1.32946267     -4.21577778      5.63505356
C           1.77321394     -5.48234847      6.35763844
C           1.07561541     -5.67331431      7.70782124
C           2.03384961     -6.10433441      8.81662333
C           3.00102420     -4.98122790      9.20914948
C           4.41631608     -5.15668711      8.65944122
C           5.08335071     -3.80199220      8.49341023
O           4.43597290     -2.84081878      8.12196721
O           6.34228827     -3.71329432      8.75013128
H           9.29290387     -1.56919343     11.22608393
H          10.62115591     -2.09365797     10.17258129
H           9.07099825     -2.95728030     10.14659478
H           9.27635571     -1.46182073      8.17920750
H           9.50076776     -0.07297336      9.25520049
H           7.25889796     -0.44461436     10.21922518
H           7.04390719     -1.86672454      9.18252434
H           7.25540953     -0.42901599      7.17580984
H           7.42915600      0.99453784      8.21907125
H           5.20166735      0.55508378      9.19377618
H           5.02471133     -0.87311573      8.15625533
H           5.19433613      2.05954029      7.26094036
H           3.99773408      1.36326641      5.30393462
H           4.03803414     -1.44385796      6.53734333
H           4.51803785     -1.11836688      4.86695816
H           2.17467607      0.02559902      4.60430470
H           0.54690535     -1.65882591      5.15717649
H           1.24422261     -2.87301213      7.30777178
H           2.85742814     -3.06288233      6.60829720
H           1.75764250     -4.21265998      4.63146522
H           0.24174519     -4.20085532      5.55177728
H           2.85031114     -5.41585907      6.51084933
H           1.57984788     -6.34618346      5.72130545
H           0.28573969     -6.41817687      7.60673659
H           0.61264232     -4.73289959      8.01127782
H           2.60257059     -6.97328704      8.48313781
H           1.44248015     -6.39332796      9.68584673
H           3.05839842     -4.90614400     10.29527936
H           2.61026843     -4.03401834      8.82755268
H           4.36775593     -5.61765135      7.67189239
H           5.00576904     -5.80346242      9.30880264
H           6.72726817     -4.54318135      9.04128235
          52
 Energy =    -62.36584369 a.u.  #Cluster:   85
C           7.32000705     -1.17832122      3.17199736
C           6.66793183      0.18751835      3.33109123
C           7.35214841      1.02747858      4.40599568
C           7.11117122      0.50413938      5.81791427
C           5.66905115      0.73223886      6.27170863
C           5.44586593      0.13700784      7.62746386
C           4.81092948     -0.99530037      7.87084860
C           4.18761117     -1.87352827      6.82211790
C           5.19866600     -2.82415144      6.23936288
C           4.96842747     -4.06065227      5.84015372
C           3.66163805     -4.79054417      5.90790899
C           3.85651017     -6.20193685      6.46098964
C           4.41100566     -6.17594405      7.88171484
C           3.37149610     -5.71355192      8.89353166
C           4.01751939     -5.44047903     10.24418368
C           3.01403368     -4.99413029     11.30726076
C           2.10200465     -3.86310225     10.82393942
C           2.90036784     -2.77098758     10.14064310
O           4.06518089     -2.55918718     10.42468902
O           2.31043601     -2.09705598      9.20853940
H           8.37604364     -1.05615471      2.93026268
H           6.83481231     -1.73551773      2.37188264
H           7.23506532     -1.74913962      4.09599909
H           5.61512311      0.05773177      3.58434140
H           6.72854318      0.71739287      2.37983089
H           6.98018127      2.05200077      4.35204454
H           8.42505531      1.03656777      4.20592460
H           7.77852113      1.01789149      6.51110142
H           7.33126125     -0.56347830      5.85541301
H           4.99066512      0.27697221      5.54910511
H           5.48029009      1.80733238      6.29954237
H           5.89351606      0.69609411      8.44407462
H           4.72740507     -1.36764366      8.88956328
H           3.79906540     -1.25230238      6.01007564
H           3.35270778     -2.43024708      7.25210535
H           6.19148926     -2.39642790      6.13704069
H           5.77742503     -4.64984751      5.41660679
H           3.23775537     -4.86206209      4.90372310
H           2.95656723     -4.24421605      6.53527914
H           4.55430827     -6.73352126      5.81228077
H           2.90225867     -6.72982225      6.46011698
H           5.26507809     -5.49582271      7.91602034
H           4.75550183     -7.17278476      8.15997916
H           2.59889121     -6.47683607      9.00081122
H           2.90385624     -4.79970743      8.52581268
H           4.77190302     -4.66096361     10.11638015
H           4.51907543     -6.34662218     10.58672939
H           3.56814108     -4.65176325     12.18265970
H           2.39669156     -5.84490887     11.59839618
H           1.57309541     -3.43816245     11.67751762
H           1.36009437     -4.25442896     10.12773835
H           1.39744281     -2.36437444      9.07504963
          52
 Energy =    -62.36576863 a.u.  #Cluster:   86
C           7.73431811     -3.41731199      6.95418781
C           7.53313674     -2.08095720      7.64993547
C           6.25786655     -1.40680440      7.16741635
C           5.97699103     -0.12938290      7.94426483
C           4.77188623      0.61149085      7.37843414
C           5.05374046      1.13436228      5.99877148
C           4.15281037      1.41082530      5.07542823
C           2.66814025      1.23094813      5.22782006
C           2.17871354      0.17275887      4.27902668
C           1.68931766     -1.00610917      4.61514465
C           1.52614194     -1.53746777      6.00481759
C           2.44508992     -2.73357499      6.23805352
C           2.33644354     -3.23021135      7.66976049
C           3.23790688     -4.42962950      7.91084192
C           3.22065564     -4.84299825      9.37509152
C           4.08526884     -6.06850372      9.65067296
C           5.57149115     -5.83691017      9.35072874
C           6.11209818     -4.69494037     10.19065649
O           6.67150247     -4.89960461     11.25114969
O           5.92687691     -3.49524869      9.73876919
H           6.88437048     -4.06565428      7.16924179
H           8.64695617     -3.90007450      7.30107395
H           7.79745801     -3.26659610      5.87635649
H           8.38342453     -1.42763666      7.44977887
H           7.46120887     -2.24341289      8.72728757
H           5.42047504     -2.09644247      7.29596630
H           6.35363170     -1.17407264      6.10508139
H           6.85326764      0.51924969      7.88703874
H           5.79732173     -0.38292690      8.98982678
H           4.52337752      1.44944942      8.03458188
H           3.91774942     -0.06735162      7.35728693
H           6.10717950      1.30435203      5.79469458
H           4.45791991      1.77972530      4.10085536
H           2.17400594      2.17547180      4.98660425
H           2.42703824      0.96602500      6.25600185
H           2.28450574      0.44044676      3.23171740
H           1.38943494     -1.70718874      3.84093869
H           0.49363083     -1.85906497      6.15896305
H           1.76465637     -0.77014160      6.74198297
H           3.47789304     -2.43784175      6.04478677
H           2.17612812     -3.53816327      5.55163151
H           1.30115711     -3.50374947      7.88203496
H           2.62970101     -2.42482407      8.34638070
H           4.25447043     -4.15553313      7.62151691
H           2.91279220     -5.26483698      7.28791877
H           2.19157770     -5.06648679      9.66139101
H           3.57041239     -4.00331836      9.97859916
H           3.72639973     -6.89570940      9.03551112
H           3.98306687     -6.34831076     10.70071116
H           5.69406951     -5.60947975      8.29267064
H           6.12257888     -6.74684634      9.58856197
H           5.48585139     -3.48937331      8.88517084
          52
 Energy =    -62.36576702 a.u.  #Cluster:   87
C           6.37078688      1.70997909      6.23663074
C           6.05673734      1.15354362      4.85385813
C           6.23082451     -0.36191970      4.81186329
C           5.01837007     -1.08059099      5.39257489
C           5.32359757     -2.54457845      5.67904578
C           6.28199101     -2.68571225      6.82930248
C           6.81664028     -3.82055157      7.23489969
C           6.52679205     -5.16675978      6.63335162
C           6.08717009     -6.11440623      7.71172072
C           4.90306483     -6.68709843      7.81657392
C           3.74363613     -6.54864483      6.87771194
C           2.49346951     -6.09178878      7.62753727
C           2.57100415     -4.61928979      8.00857790
C           1.40644080     -4.24270158      8.91501204
C           1.21437768     -2.73893320      9.08148930
C           2.42608763     -2.03054195      9.69411210
C           3.32661481     -1.41830822      8.63096972
C           4.52560673     -0.63920922      9.15492718
O           5.36566178     -0.24384269      8.36263906
O           4.63369630     -0.40646158     10.41421427
H           7.42559853      1.55378252      6.46085839
H           5.77945046      1.19784898      6.99626006
H           6.15376204      2.77578526      6.27471509
H           6.72465812      1.62113536      4.12951679
H           5.02780416      1.39806864      4.58549028
H           7.11993627     -0.62785937      5.38680575
H           6.37513315     -0.69307878      3.78257360
H           4.18659344     -1.00249128      4.69201358
H           4.73090125     -0.60044213      6.32924737
H           5.74714077     -3.00510935      4.78370073
H           4.39582953     -3.06902301      5.92037837
H           6.50661538     -1.75831515      7.34812651
H           7.49570477     -3.84543312      8.08177755
H           7.43916576     -5.55579107      6.17268706
H           5.76061397     -5.07465422      5.86478945
H           6.84300344     -6.28739543      8.47256131
H           4.69663843     -7.34076695      8.66034506
H           3.54517508     -7.52008663      6.41933686
H           3.96506551     -5.82951585      6.08843463
H           2.38590254     -6.68984443      8.53451687
H           1.61284407     -6.24634247      7.00306865
H           2.53700921     -4.01525674      7.09994902
H           3.51450532     -4.42730949      8.52131471
H           1.56459063     -4.69475016      9.89594802
H           0.49261355     -4.66075564      8.48790481
H           0.34261396     -2.58109956      9.71756123
H           1.00922150     -2.29708327      8.10477106
H           2.99805040     -2.74012414     10.29395646
H           2.07721361     -1.22855424     10.34725584
H           2.73540787     -0.73403806      8.01869450
H           3.70684237     -2.19934826      7.97418951
H           3.90989215     -0.76282324     10.93475261
          52
 Energy =    -62.36566794 a.u.  #Cluster:   88
C           8.13206847     -2.73987002      6.18214483
C           6.76317383     -2.13692028      6.45756473
C           6.80705718     -1.20969052      7.66531254
C           5.41363795     -0.73649864      8.05672352
C           4.87906722      0.31997348      7.09326686
C           3.40093214      0.49033487      7.26304247
C           2.51476442      0.58131918      6.28836152
C           2.83849770      0.59616879      4.81377436
C           3.70384349     -0.54579049      4.34023561
C           3.44157763     -1.82655839      4.52701806
C           2.28117416     -2.38609729      5.28801539
C           2.76777864     -3.29188035      6.41599542
C           1.60080590     -3.81851056      7.23475138
C           2.00989258     -4.88919480      8.24099336
C           2.97077235     -4.37909312      9.31755786
C           4.43347852     -4.63686277      8.98398610
C           5.34283447     -4.28074381     10.15486290
C           6.79798325     -4.32299279      9.71996584
O           7.11337912     -3.96347740      8.60109535
O           7.67092995     -4.73402808     10.57644687
H           8.86339844     -1.94622662      6.03394722
H           8.10152771     -3.36982615      5.29489839
H           8.42740806     -3.34533016      7.04001936
H           6.05337935     -2.94097431      6.66299840
H           6.42108789     -1.58596190      5.58123399
H           7.43528170     -0.34576749      7.44334242
H           7.24796634     -1.75972514      8.49824759
H           5.42675552     -0.32252237      9.06551877
H           4.74299042     -1.59823526      8.04770432
H           5.10440510      0.02490729      6.06864894
H           5.38586127      1.26757301      7.29300262
H           3.07638799      0.51557138      8.29939510
H           1.46317785      0.69801423      6.52736797
H           3.34477865      1.53559323      4.58256363
H           1.90220320      0.57599756      4.25244961
H           4.58214528     -0.25459070      3.77447260
H           4.11623768     -2.58286493      4.13616633
H           1.65507230     -2.97926334      4.61654970
H           1.67349433     -1.58490447      5.70947371
H           3.43801151     -2.72149411      7.05951934
H           3.32228664     -4.12867815      5.98808699
H           0.86435750     -4.24473928      6.55050439
H           1.13636410     -2.98551680      7.76603834
H           2.48360420     -5.71562692      7.70790256
H           1.10453919     -5.26504907      8.71890963
H           2.75504083     -4.88673692     10.25934267
H           2.81789741     -3.30847739      9.46453094
H           4.73983135     -4.03940927      8.12361172
H           4.56187163     -5.69249832      8.73639974
H           5.16696662     -4.96000234     10.98926710
H           5.11336016     -3.26423082     10.48016705
H           7.27731468     -4.98023454     11.41827261
          52
 Energy =    -62.36558621 a.u.  #Cluster:   89
C           5.80024737      0.90093959      7.51725892
C           6.45604664     -0.31988809      6.89007668
C           6.16613527     -0.37800917      5.39613607
C           6.95367180     -1.47191926      4.67806002
C           6.75486902     -2.86204336      5.27247761
C           5.33364592     -3.33970713      5.20874290
C           4.95995414     -4.57445713      5.49144659
C           5.91464008     -5.67079652      5.88431111
C           6.80016916     -5.34655031      7.06234172
C           6.40316735     -4.74637100      8.16938312
C           5.01734093     -4.23616175      8.42153051
C           4.70477461     -4.07381021      9.90332535
C           3.45672558     -3.22220375     10.11276068
C           2.15646361     -3.91660987      9.68354335
C           1.32886206     -3.04770415      8.73365094
C           1.75702087     -3.22313824      7.27397840
C           1.74867541     -1.90988177      6.49830970
C           2.97238225     -1.08524225      6.84758165
O           3.79418793     -1.46187085      7.66070280
O           3.12811868      0.03483306      6.22067220
H           4.72219855      0.83846731      7.36490507
H           6.17470103      1.80856787      7.04493291
H           6.00753870      0.93977503      8.58533782
H           6.06010485     -1.21244241      7.37698275
H           7.53487178     -0.28173484      7.04683189
H           6.43332500      0.58276499      4.95208419
H           5.09525761     -0.52803498      5.24682811
H           8.01511608     -1.22457451      4.73274133
H           6.65428729     -1.48744288      3.62897110
H           7.08587736     -2.85251941      6.31341000
H           7.39111994     -3.57162496      4.73689012
H           4.59904561     -2.59756483      4.91631965
H           3.91507925     -4.85702519      5.43460001
H           6.55417152     -5.89189571      5.02616327
H           5.34648641     -6.57390620      6.11793162
H           7.83150777     -5.66634940      6.95918990
H           7.10882020     -4.55504146      8.97216702
H           4.28923261     -4.90664995      7.96274703
H           4.91606053     -3.25400290      7.94691463
H           5.55078516     -3.57830647     10.38319563
H           4.56638268     -5.05284574     10.36441793
H           3.57990932     -2.30909643      9.52588407
H           3.38824017     -2.94231082     11.16383163
H           1.56391618     -4.14682820     10.56885910
H           2.38936197     -4.85638633      9.18103080
H           1.45107836     -2.00343706      9.02571740
H           0.27341499     -3.30264409      8.82864319
H           1.10589942     -3.95032730      6.78956304
H           2.77502643     -3.61132567      7.24367066
H           0.84673198     -1.34131408      6.72585614
H           1.76756837     -2.10678011      5.42576099
H           2.41629242      0.22078022      5.60346309
          52
 Energy =    -62.36558111 a.u.  #Cluster:   90
C           1.29608319     -1.16252649      4.96195725
C           2.49974666     -1.95561010      4.47315277
C           3.27996431     -1.16909091      3.42981024
C           4.49301001     -1.92174714      2.89181515
C           5.63361695     -2.01041478      3.90723944
C           5.39971204     -3.05876134      4.95061951
C           5.52076320     -2.90667454      6.25660334
C           5.91692625     -1.63870514      6.96423345
C           7.37422007     -1.69249787      7.32955572
C           7.86022306     -2.02633966      8.51074742
C           7.06886931     -2.42481040      9.71970407
C           7.14331495     -3.94161420      9.91045050
C           6.65976802     -4.40502719     11.28581259
C           5.19536741     -4.83396951     11.33905265
C           4.19409880     -3.68710997     11.17955661
C           3.63287710     -3.58973427      9.76955939
C           2.57910019     -2.49189820      9.66108923
C           2.26257473     -2.23409012      8.20026091
O           3.16403297     -2.17511334      7.38467927
O           1.02973663     -2.08947931      7.85517714
H           1.62643954     -0.18319873      5.30889322
H           0.81505194     -1.68183532      5.79162898
H           0.57984587     -1.02754850      4.15214585
H           2.16680933     -2.89990999      4.03986298
H           3.13806036     -2.17174713      5.33155262
H           3.61419672     -0.22679114      3.86919957
H           2.60867157     -0.94099741      2.59947283
H           4.85784742     -1.39995406      2.00670759
H           4.19144292     -2.92998705      2.60234325
H           5.77271560     -1.03248955      4.37078392
H           6.55078687     -2.26664916      3.37144446
H           5.11002769     -4.02329711      4.54308374
H           5.34366600     -3.74440462      6.92429800
H           5.30906621     -1.53671374      7.86509781
H           5.73992337     -0.77869378      6.31693018
H           8.04768826     -1.46625377      6.50859168
H           8.93607146     -2.07172572      8.65614539
H           6.03077897     -2.11169322      9.61845555
H           7.49401388     -1.94645078     10.60454957
H           8.18877490     -4.23175500      9.79220298
H           6.56026767     -4.43487407      9.13157988
H           6.82171031     -3.60197465     12.00736861
H           7.26148304     -5.26200299     11.59186551
H           5.03045610     -5.31480450     12.30397444
H           5.01404754     -5.57325766     10.55674253
H           4.67401310     -2.74320924     11.44300177
H           3.35511300     -3.84178473     11.86007910
H           3.18798349     -4.54793308      9.49454305
H           4.43301516     -3.36479933      9.06223594
H           2.98691497     -1.57568411     10.09212840
H           1.68293047     -2.77171961     10.21490132
H           0.41897653     -2.15537007      8.59315822
          52
 Energy =    -62.36545642 a.u.  #Cluster:   91
C           7.35495844     -1.80849942      3.44030304
C           7.32447599     -0.42636329      4.07618450
C           7.80442055     -0.46002483      5.52402133
C           6.78509921     -1.08864088      6.46796464
C           5.60159217     -0.15630595      6.73096485
C           4.62302101     -0.81267943      7.65422083
C           3.48099709     -1.36798679      7.29201350
C           2.94432621     -1.38591538      5.88047168
C           3.86966678     -2.08981345      4.92101702
C           4.03987743     -3.39696128      4.85451738
C           3.36218790     -4.43219472      5.69965569
C           4.39747006     -5.35919053      6.33855591
C           5.11443251     -4.68092482      7.50237372
C           4.29844273     -4.77969445      8.78420949
C           4.92058606     -3.94999205      9.89952241
C           4.32153964     -4.25382419     11.27087229
C           2.78912986     -4.17887453     11.28436113
C           2.34466469     -2.86432642     10.67512892
O           2.07749941     -2.79434700      9.48962191
O           2.31779524     -1.82760081     11.44455996
H           7.01190924     -1.75645834      2.40810393
H           6.70651657     -2.48985449      3.98966079
H           8.37215169     -2.20019868      3.45831548
H           6.30689448     -0.03564372      4.04034348
H           7.96968888      0.23892693      3.50154365
H           8.00453897      0.55723651      5.86443304
H           8.73466152     -1.02925009      5.56611694
H           7.26436527     -1.31293750      7.42172575
H           6.41483408     -2.02112567      6.04001351
H           5.11745641      0.09348702      5.78662356
H           5.98114991      0.76231854      7.18312782
H           4.94111424     -0.85570689      8.69182572
H           2.85541188     -1.84705613      8.03963736
H           2.80457175     -0.35731729      5.54276884
H           1.97458530     -1.88503814      5.87696931
H           4.43016407     -1.44066349      4.25810268
H           4.73560456     -3.81380977      4.13132071
H           2.70363683     -5.02738624      5.06277561
H           2.76167466     -3.96238291      6.47893198
H           5.11875100     -5.64570268      5.57190482
H           3.90737838     -6.26002467      6.70946112
H           5.28192222     -3.62902988      7.26245582
H           6.08350590     -5.15317187      7.66923487
H           4.24745706     -5.82513484      9.09411361
H           3.28468043     -4.42291060      8.59165227
H           4.78929375     -2.89272187      9.66368053
H           5.99137092     -4.15848971      9.93414383
H           4.71101144     -3.53551119     11.99376014
H           4.62623450     -5.25601427     11.57658457
H           2.44083652     -4.26663913     12.31279478
H           2.38303910     -5.00009121     10.69444978
H           2.55709825     -2.03403634     12.35249659
          52
 Energy =    -62.36542220 a.u.  #Cluster:   92
C           6.01128730     -0.04263540      3.30501263
C           6.21806420     -1.36778323      4.02206371
C           5.04958988     -1.67044435      4.94813778
C           5.21000571     -3.00637652      5.66539648
C           6.26238640     -2.93486873      6.76062170
C           6.46379259     -4.25589096      7.44702312
C           7.32017809     -4.46144128      8.43000748
C           8.21263429     -3.40062510      9.01490933
C           8.20547018     -3.43881485     10.52105540
C           7.15137861     -3.13197111     11.25564587
C           5.81482673     -2.75179828     10.69703768
C           4.86034602     -3.94935923     10.74492838
C           3.67957604     -3.76843211      9.80143903
C           2.83186574     -2.55555799     10.15929153
C           1.60693693     -2.44077612      9.25875324
C           1.99618060     -2.15472730      7.81718672
C           0.78531067     -1.99293803      6.90854405
C           1.22562338     -1.98769809      5.45328821
O           2.30274222     -2.44709588      5.12792181
O           0.40921146     -1.47932294      4.58995527
H           5.92627886      0.76070566      4.03679661
H           5.09352066     -0.08165524      2.71814564
H           6.84879226      0.16793569      2.64157812
H           7.14090153     -1.32331196      4.60196858
H           6.30821135     -2.16962102      3.28730566
H           4.12791110     -1.69339121      4.36202559
H           4.96359770     -0.87699759      5.69326300
H           5.49381700     -3.76974761      4.93865897
H           4.25141949     -3.28626183      6.10737704
H           5.95604950     -2.18757284      7.49780462
H           7.21059546     -2.60539849      6.32934576
H           5.84741120     -5.06661148      7.07206422
H           7.42494405     -5.44198310      8.88339958
H           7.87379161     -2.42059293      8.67410645
H           9.23116747     -3.55473360      8.65332930
H           9.13162345     -3.74953921     10.99202407
H           7.19516420     -3.19530961     12.33846329
H           5.92150210     -2.42899467      9.66032788
H           5.38851066     -1.92995748     11.27315455
H           4.49757351     -4.08112601     11.76510366
H           5.40959026     -4.84517936     10.45103004
H           3.05096321     -4.66015391      9.83622331
H           4.06401306     -3.65502152      8.78695316
H           3.43014188     -1.64961040     10.05260709
H           2.51239197     -2.64343193     11.19916309
H           0.96706107     -1.63248354      9.61678036
H           1.04354970     -3.37507741      9.29869248
H           2.59650191     -2.98069279      7.42886912
H           2.60139840     -1.24666452      7.78125064
H           0.24933344     -1.07359912      7.14512067
H           0.10686673     -2.83416197      7.06178204
H          -0.40320396     -1.16204214      4.99447565
          52
 Energy =    -62.36530327 a.u.  #Cluster:   93
C           7.46502359     -1.26037821      8.74996588
C           7.51863537      0.13156788      8.13848767
C           6.53636004      0.27802766      6.98212633
C           5.09455366      0.36086140      7.45933449
C           4.14094277      0.50290686      6.27330879
C           2.72173943      0.65008372      6.73800486
C           1.90915067     -0.36580573      6.96603540
C           2.30014743     -1.79885508      6.73827064
C           2.31050359     -2.14400038      5.27001468
C           3.03486931     -3.11089046      4.73825403
C           3.96889342     -3.98929799      5.51824434
C           5.37878436     -3.39831693      5.52045617
C           6.39005363     -4.27451596      6.25150383
C           6.11142837     -4.38169904      7.75329718
C           5.36801141     -5.65744389      8.12962189
C           5.21847095     -5.81482565      9.64107327
C           4.55201752     -4.60806779     10.31631750
C           3.25043312     -4.25391245      9.62241432
O           3.26354221     -3.72511221      8.52518450
O           2.14451202     -4.54565094     10.21833054
H           7.71700053     -2.00188001      7.99230303
H           6.46434569     -1.47094946      9.12583970
H           8.17343465     -1.34094628      9.57319614
H           8.53087344      0.31682473      7.77716213
H           7.28014397      0.87443563      8.90125800
H           6.63959304     -0.57846967      6.31289941
H           6.76655708      1.18557092      6.42154290
H           4.98146524      1.22231016      8.11984013
H           4.83746668     -0.54387352      8.01156853
H           4.24261899     -0.38247524      5.64347149
H           4.43618307      1.37876655      5.69352834
H           2.39869921      1.66866413      6.92779331
H           0.89421445     -0.19658013      7.30862596
H           1.60613360     -2.46388992      7.25853946
H           3.29642799     -1.96748226      7.15070418
H           1.66028745     -1.53141166      4.65385505
H           3.01161946     -3.29207786      3.66813012
H           4.00551786     -4.98578354      5.07569561
H           3.61398998     -4.07212343      6.54590102
H           5.34718150     -2.41900034      6.00138703
H           5.70243010     -3.26692799      4.48649419
H           7.37940223     -3.84104521      6.10177797
H           6.38149124     -5.27361340      5.81226436
H           5.51894918     -3.51812365      8.05920337
H           7.05341243     -4.36494881      8.30267901
H           5.92399114     -6.51402014      7.74523314
H           4.38313372     -5.65578965      7.66362172
H           6.20834951     -5.95361540     10.07934997
H           4.62184128     -6.70505966      9.84571983
H           5.22353216     -3.75177053     10.25234015
H           4.37776295     -4.84374321     11.36603061
H           2.28020271     -4.95862069     11.07575085
          52
 Energy =    -62.36526178 a.u.  #Cluster:   94
C           3.95466238     -2.60513790      4.45314488
C           4.68055399     -3.82876646      4.99327613
C           6.16408540     -3.81400569      4.63645534
C           6.95702935     -2.77495062      5.42667314
C           7.15200024     -3.19282520      6.87908037
C           8.03826805     -4.39828743      7.00519514
C           8.07595843     -5.18228360      8.06675364
C           7.20392204     -4.97409079      9.27481325
C           5.78653793     -5.40185859      8.99830310
C           4.70747799     -4.83904010      9.50971014
C           4.70818167     -3.66200166     10.44537187
C           4.86347104     -2.33540725      9.69167258
C           3.89370358     -2.21259370      8.52183289
C           2.43495491     -2.08741207      8.95208779
C           2.10814675     -0.75230105      9.61971310
C           2.38540527      0.47724381      8.75886681
C           1.60325958      0.48398667      7.44163655
C           2.25258769     -0.42452601      6.41736918
O           1.68618966     -1.41535648      5.99349905
O           3.45387216     -0.12600466      6.04630613
H           4.03927384     -2.57397207      3.36764994
H           4.38190671     -1.69229574      4.86908985
H           2.90098836     -2.63175012      4.73293949
H           4.22194695     -4.72356558      4.57084371
H           4.56681243     -3.86569024      6.07750677
H           6.25872042     -3.60201066      3.57022129
H           6.59363564     -4.79807650      4.83072214
H           6.43540201     -1.81817637      5.39093166
H           7.93832350     -2.65138718      4.96625232
H           6.18091589     -3.40694006      7.32608869
H           7.59757305     -2.36436031      7.43566578
H           8.68434509     -4.58551468      6.15304256
H           8.73441129     -6.04326696      8.09696917
H           7.21896782     -3.92047589      9.55738198
H           7.59192127     -5.55925850     10.11155844
H           5.69894778     -6.25104685      8.32763698
H           3.72533350     -5.21672242      9.24416666
H           5.53231493     -3.75322699     11.15419700
H           3.77200599     -3.64575737     11.00376135
H           5.88028790     -2.27496891      9.30447453
H           4.71093937     -1.50892303     10.38610331
H           3.99888552     -3.09836309      7.89355103
H           4.17573115     -1.34585335      7.92356209
H           2.20750468     -2.88830062      9.65676912
H           1.79205646     -2.21935459      8.08083117
H           2.69052841     -0.66565029     10.53850718
H           1.04974994     -0.75474772      9.88616709
H           3.45037557      0.53915840      8.52826024
H           2.11466159      1.36064841      9.33834507
H           1.59447422      1.50035152      7.04787431
H           0.57828273      0.15818496      7.62183263
H           3.78209503      0.68124155      6.44975110
          52
 Energy =    -62.36517503 a.u.  #Cluster:   95
C           7.37820918     -0.26346549      3.47957308
C           6.91697421      0.95208440      4.27037488
C           7.44017060      0.93555691      5.70381189
C           6.80330905     -0.15153850      6.56308710
C           5.33581609      0.14981352      6.87140143
C           4.74022134     -0.95717447      7.68392939
C           4.02091247     -1.95629674      7.20682028
C           3.65109802     -2.16622405      5.76394316
C           4.63650256     -3.10454570      5.11844302
C           4.49785656     -4.41378029      5.02808577
C           3.34057657     -5.22300597      5.53180506
C           3.83536881     -6.40141900      6.36987943
C           4.51652506     -5.93657144      7.65302381
C           3.51378300     -5.48327955      8.70483584
C           4.23275440     -4.94181830      9.93190421
C           3.28112360     -4.58498684     11.07082430
C           2.31897498     -3.44910075     10.72657873
C           3.04198246     -2.13857808     10.47271414
O           4.25242128     -2.08273855     10.36704090
O           2.30179377     -1.08464489     10.34901813
H           7.02852391     -0.19733439      2.45032451
H           6.98300471     -1.17666423      3.92388300
H           8.46723004     -0.31393027      3.48274242
H           5.82694529      0.98414610      4.27965508
H           7.28200629      1.85202684      3.77411086
H           7.24031690      1.90195956      6.16969713
H           8.52022721      0.78074153      5.67513288
H           7.34699208     -0.22685877      7.50583777
H           6.86843476     -1.11141576      6.04949329
H           4.78975662      0.25677989      5.93284655
H           5.28027438      1.09222718      7.41926119
H           4.96957989     -0.93195962      8.74694134
H           3.67785461     -2.74096387      7.87276263
H           3.66415308     -1.21312265      5.23362010
H           2.64718508     -2.58848242      5.70851367
H           5.53556296     -2.62340418      4.74587200
H           5.27437260     -5.00994166      4.55619210
H           2.77782170     -5.61188703      4.67997727
H           2.67484123     -4.60423387      6.13336484
H           4.54392045     -6.97486345      5.77025983
H           2.99396055     -7.04484184      6.62950638
H           5.19054479     -5.10862427      7.42300139
H           5.10636295     -6.75473105      8.06914390
H           2.88633972     -6.32867499      8.99424061
H           2.87564523     -4.70632336      8.28214647
H           4.80464879     -4.05612502      9.64850279
H           4.93072878     -5.70278280     10.28543397
H           3.87032657     -4.28535893     11.93980937
H           2.70514402     -5.47440083     11.33270973
H           1.61285680     -3.31056954     11.54594401
H           1.74807352     -3.70331664      9.83282975
H           1.36609612     -1.27847646     10.45590542
          52
 Energy =    -62.36517319 a.u.  #Cluster:   96
C           3.88146473     -0.15269538      7.02709165
C           3.55978925     -1.11537951      5.89422287
C           3.99017331     -0.53852510      4.55265984
C           3.79848221     -1.51846050      3.39605187
C           5.01232763     -2.43034915      3.19511498
C           5.21301434     -3.37581440      4.33904274
C           6.18494619     -3.30568366      5.23041284
C           7.25697416     -2.24712525      5.26401578
C           8.45540189     -2.69803114      6.04471877
C           8.59754543     -2.56054626      7.35110937
C           7.58399479     -1.95580575      8.27234043
C           6.79016087     -3.04886037      8.98580606
C           5.69289187     -2.45542400      9.85295836
C           4.85833340     -3.55023209     10.50137634
C           3.68061330     -2.99300825     11.29496796
C           2.60302796     -2.38970056     10.39981158
C           1.83662170     -3.43858820      9.60084561
C           1.19655936     -2.81766046      8.36935664
O           1.63134654     -1.78804564      7.89200971
O           0.19901390     -3.44797689      7.84253098
H           4.96121055     -0.03867076      7.12090237
H           3.47647472     -0.53883724      7.96216707
H           3.43619787      0.82114690      6.82260511
H           2.48378552     -1.30257793      5.87988039
H           4.07009623     -2.06122159      6.07435933
H           5.04212374     -0.25106301      4.60588281
H           3.40111952      0.36112745      4.36634565
H           3.64209536     -0.95855865      2.47393979
H           2.91450766     -2.12916237      3.58631903
H           5.89597329     -1.80325511      3.06796010
H           4.85965241     -3.00786831      2.28105419
H           4.46382876     -4.15854041      4.41225780
H           6.24174143     -4.02785684      6.03863220
H           6.83455507     -1.35098332      5.72720691
H           7.54991684     -1.98985013      4.24507954
H           9.22519388     -3.19456049      5.46271100
H           9.48388647     -2.94589944      7.84634377
H           6.88473567     -1.33146475      7.71295231
H           8.07930081     -1.33816204      9.02377552
H           7.46443026     -3.64254240      9.60516852
H           6.33526088     -3.70318945      8.23966200
H           5.05607366     -1.83012073      9.22556806
H           6.13795134     -1.82758993     10.62702728
H           5.49971329     -4.12954194     11.16718213
H           4.48740032     -4.21758853      9.72094978
H           4.05489739     -2.22554992     11.97449350
H           3.23258362     -3.79396572     11.88522051
H           3.06727360     -1.69694539      9.69271956
H           1.90018206     -1.82471198     11.01328444
H           1.08235493     -3.92133176     10.22187795
H           2.52808591     -4.20676445      9.24960348
H          -0.02829042     -4.24709699      8.32642886
          52
 Energy =    -62.36499486 a.u.  #Cluster:   97
C           4.17919431     -0.38458693      0.97133966
C           5.14810758     -1.46466195      1.42579814
C           5.14589071     -1.60158681      2.94040939
C           6.11351623     -2.67931255      3.40260299
C           6.09738796     -2.81134363      4.92002137
C           7.02167708     -3.89208145      5.38936623
C           7.83884714     -3.83664532      6.42442363
C           7.97356903     -2.68746177      7.38573751
C           7.50498987     -3.10879593      8.75365731
C           6.26818426     -2.98744813      9.19803566
C           5.10705754     -2.42651994      8.43749812
C           4.16030726     -3.55378766      8.01897025
C           2.89173537     -3.02043938      7.36120403
C           1.96745002     -2.32524969      8.35619338
C           1.24055083     -3.31550884      9.26658270
C           0.80992970     -2.66623805     10.58513312
C           1.79838447     -2.97647125     11.71682191
C           3.20936769     -2.68376184     11.25265177
O           3.99232915     -3.58613698     11.02218193
O           3.52206563     -1.44780118     11.03337380
H           4.46414968      0.57208944      1.40931723
H           3.17040316     -0.63459404      1.30012272
H           4.18732620     -0.29507850     -0.11401210
H           6.15653129     -1.21384472      1.09268525
H           4.86384860     -2.42009361      0.98179760
H           4.13962256     -1.85635393      3.27938252
H           5.43100079     -0.64834904      3.39009746
H           7.12115138     -2.42431958      3.06952646
H           5.82958341     -3.63361351      2.95502062
H           5.07685015     -3.04893381      5.23202510
H           6.37079307     -1.85289732      5.36258392
H           6.98629315     -4.78933813      4.77716666
H           8.46358518     -4.69020660      6.67102172
H           7.38708852     -1.83793832      7.03600276
H           9.02257770     -2.39051826      7.44107823
H           8.26407848     -3.57750844      9.37156782
H           5.99395737     -3.34911597     10.18655680
H           5.43951175     -1.89587157      7.54585613
H           4.56825922     -1.72441428      9.07885125
H           3.89902020     -4.13767672      8.90352211
H           4.68194184     -4.20447102      7.31677995
H           2.34957790     -3.84755407      6.90021712
H           3.18278076     -2.31641554      6.57970492
H           1.22593675     -1.73733361      7.81436707
H           2.55570983     -1.63663203      8.96394147
H           1.89794364     -4.15811751      9.48939625
H           0.37048749     -3.70214522      8.73588963
H          -0.17824233     -3.02164004     10.87706899
H           0.76205753     -1.58487621     10.44826806
H           1.72925775     -4.03421305     11.97324825
H           1.54802720     -2.37269186     12.58828504
H           2.80924060     -0.84003868     11.24598917
          52
 Energy =    -62.36490056 a.u.  #Cluster:   98
C           7.44981966      1.59383572      6.15717160
C           6.80375512      0.68734858      7.19447109
C           5.86365150     -0.32639995      6.55547685
C           6.57871013     -1.39833921      5.74851074
C           5.55981427     -2.37453787      5.16741183
C           6.22522282     -3.49663186      4.43546097
C           6.03871911     -4.78744377      4.64053043
C           5.12514962     -5.40797979      5.65233973
C           5.87768469     -6.33968104      6.56689657
C           5.34553894     -6.99019356      7.58412273
C           3.91519687     -6.90363242      8.02340526
C           3.81935989     -6.25115682      9.40472577
C           4.11162539     -4.75588407      9.33003945
C           2.90395197     -3.97342857      8.83229330
C           3.27225510     -2.53121691      8.52547134
C           2.04542563     -1.68956557      8.19847487
C           2.43378080     -0.34314603      7.59353334
C           3.31616820      0.44587894      8.54591610
O           3.44177142      0.11671289      9.70991134
O           3.94316580      1.46512637      8.05130587
H           6.67627056      2.11247592      5.59038825
H           8.05581709      1.00559015      5.46872112
H           8.08710048      2.33058350      6.64416750
H           6.22781474      1.30067965      7.89100970
H           7.57918515      0.15730215      7.74931262
H           5.16113088      0.19998873      5.90605145
H           5.29420208     -0.82451269      7.34017305
H           7.26931039     -1.93806696      6.39896164
H           7.14506434     -0.94442850      4.93439995
H           4.90844441     -1.82456075      4.48340929
H           4.94693202     -2.76079931      5.98323634
H           6.92955190     -3.16513246      3.67710267
H           6.59282593     -5.51329771      4.05180958
H           4.34626379     -5.97451436      5.13333970
H           4.63136722     -4.63771678      6.24715514
H           6.92998565     -6.45875245      6.32891408
H           5.96226520     -7.63535852      8.20345813
H           3.49688002     -7.91040643      8.07861813
H           3.33331032     -6.32236738      7.30786460
H           4.53772335     -6.73805531     10.06567410
H           2.81728521     -6.39337978      9.81061856
H           4.94963510     -4.58671492      8.65088065
H           4.38741688     -4.38115125     10.31659778
H           2.12135704     -3.99497103      9.59309560
H           2.51729747     -4.43871140      7.92373044
H           3.95213551     -2.52066170      7.67154571
H           3.78880111     -2.09933763      9.38486788
H           1.47679984     -1.51893398      9.11488949
H           1.41775038     -2.23833584      7.49456300
H           1.53848977      0.23982113      7.37481294
H           2.97257474     -0.50520682      6.65982969
H           3.74115975      1.59963702      7.12151726
          52
 Energy =    -62.36484861 a.u.  #Cluster:   99
C           8.26564802     -1.23616181      8.93000391
C           7.20778356     -0.38092098      8.25192084
C           5.95527732     -0.28699974      9.11063636
C           4.87189732      0.56134652      8.45680937
C           4.24203892     -0.13618827      7.25758172
C           3.23713600      0.74713658      6.58137470
C           2.17698010      0.34594245      5.90523936
C           1.80509084     -1.08702856      5.64834092
C           2.23843567     -1.48145128      4.26241042
C           3.00987306     -2.50469221      3.94676978
C           3.60597962     -3.48860546      4.90462027
C           5.12266735     -3.31963845      4.99207167
C           5.71791851     -4.24693107      6.04465703
C           5.40745652     -3.75739733      7.45146365
C           5.80863846     -4.78107163      8.50249330
C           5.62903358     -4.25628957      9.92419596
C           4.21599201     -3.72627977     10.20253605
C           3.16773532     -4.74840232      9.80646306
O           2.95445521     -4.98650791      8.62932192
O           2.53474410     -5.36442340     10.74639271
H           8.53304824     -0.79888012      9.89198562
H           9.15801042     -1.30715938      8.30985223
H           7.86852972     -2.23742118      9.09804698
H           6.95398628     -0.82520235      7.28874602
H           7.60144665      0.62217882      8.08030799
H           6.22326640      0.14745441     10.07519464
H           5.56380066     -1.29136566      9.27963939
H           5.31147508      1.50551541      8.12924764
H           4.09009665      0.77676715      9.18661104
H           3.77470570     -1.06663661      7.58548539
H           5.02763531     -0.39382183      6.54192843
H           3.44572267      1.80844967      6.68270797
H           1.52187826      1.07225790      5.43441059
H           0.72018676     -1.19456280      5.72282025
H           2.27383280     -1.73371779      6.38976387
H           1.86894622     -0.81670682      3.48675602
H           3.28313169     -2.67637469      2.90926896
H           3.39012416     -4.50521711      4.56884109
H           3.17541610     -3.35348255      5.89691305
H           5.35527368     -2.28730858      5.26004733
H           5.55743428     -3.53616537      4.01552639
H           6.80034107     -4.30317801      5.92021086
H           5.29989309     -5.24714788      5.91390136
H           4.33508375     -3.57410576      7.53444461
H           5.93410822     -2.82054996      7.63200293
H           6.85679342     -5.04661128      8.35687020
H           5.20288082     -5.67787669      8.35867112
H           6.33912594     -3.44328018     10.08637187
H           5.85228735     -5.05744115     10.63028412
H           4.05932972     -2.82197136      9.61390185
H           4.13431119     -3.47640935     11.26015799
H           2.80149870     -5.07988879     11.62497849
          52
 Energy =    -62.36483707 a.u.  #Cluster:  100
C           7.51969066     -4.07133265      7.27877207
C           7.56508372     -2.55267973      7.34603657
C           6.50987899     -1.94473953      6.43514663
C           6.46842697     -0.42836660      6.54214791
C           5.37566098      0.15655878      5.64681507
C           4.02405765     -0.31008342      6.09216505
C           3.14642702     -0.96766749      5.35694694
C           3.34995645     -1.34474359      3.90936911
C           4.40506156     -2.40984307      3.73939967
C           4.28054945     -3.65426904      4.16359249
C           3.10391594     -4.18611218      4.92229768
C           3.40021441     -4.16126190      6.42018235
C           2.26103720     -4.73753608      7.24595642
C           2.50520970     -4.47856370      8.72955938
C           2.18207819     -3.03267506      9.11025101
C           3.15310984     -2.48160414     10.14933041
C           4.48717161     -2.12595552      9.50625241
C           5.53749836     -1.60374720     10.47314342
O           6.71947443     -1.79965068     10.24970946
O           5.14880177     -0.93521961     11.50412889
H           6.53189910     -4.41742665      7.58528407
H           8.27012626     -4.50794787      7.93654304
H           7.70495924     -4.40147504      6.25630569
H           8.55199618     -2.19858468      7.04505506
H           7.37532770     -2.23355296      8.37457756
H           5.53499057     -2.34565580      6.71631778
H           6.71643178     -2.22951458      5.40163915
H           7.43713936     -0.02002354      6.25211050
H           6.26541380     -0.15132276      7.57822344
H           5.56212360     -0.14474556      4.61576183
H           5.41807543      1.24643808      5.70703838
H           3.80080208     -0.08405830      7.13110577
H           2.20285665     -1.28068222      5.79007690
H           3.64500087     -0.45864048      3.34614133
H           2.40486900     -1.71258967      3.50641934
H           5.31341402     -2.09248650      3.23973653
H           5.09209042     -4.36212016      4.02672730
H           2.89705297     -5.21536856      4.62378538
H           2.21911920     -3.57695893      4.72938293
H           3.57036831     -3.12742139      6.72338433
H           4.31009402     -4.73081411      6.61673884
H           2.19046918     -5.80947991      7.05739670
H           1.32295597     -4.26624415      6.94740396
H           3.55755402     -4.68208059      8.93638101
H           1.90207950     -5.15660788      9.33324426
H           1.16098262     -2.97815620      9.48818378
H           2.24996062     -2.40078835      8.22259466
H           3.30917979     -3.22406228     10.93334281
H           2.72916412     -1.58113005     10.59819141
H           4.31276181     -1.35207929      8.75594358
H           4.89745583     -2.99895515      8.99690327
H           4.19357093     -0.84135017     11.55573875
          52
 Energy =    -62.36472246 a.u.  #Cluster:  101
C           8.77251026     -2.38161178      6.12771362
C           7.31431988     -2.16154170      6.49723809
C           7.19291087     -1.42872447      7.82661606
C           5.73536879     -1.24116210      8.23077726
C           5.05753807     -0.14747989      7.41578167
C           3.58513715     -0.09772341      7.69082284
C           2.65728972      0.22460206      6.80861781
C           2.94195028      0.61337687      5.37828356
C           3.69401118     -0.43877353      4.59920277
C           3.31123068     -1.69653376      4.47422684
C           2.10158493     -2.30289696      5.11338950
C           2.50368293     -3.27148171      6.22492192
C           1.27127539     -3.85217061      6.90077233
C           1.58308654     -5.01257169      7.84043048
C           2.45013955     -4.61456738      9.03637486
C           3.93565998     -4.83181859      8.78884471
C           4.76264782     -4.54565564     10.03671287
C           6.23740869     -4.47182504      9.67937177
O           6.58583305     -4.04602781      8.59393768
O           7.09128846     -4.85319692     10.56856653
H           9.28087688     -1.42073860      6.04836636
H           8.85079722     -2.90522902      5.17610904
H           9.25959754     -2.97503183      6.90156250
H           6.81299514     -3.12753592      6.58523252
H           6.82437771     -1.58382963      5.71290886
H           7.67542024     -0.45277420      7.75222861
H           7.70594020     -2.01813107      8.58881146
H           5.67229559     -0.98155449      9.28841216
H           5.21063598     -2.18600800      8.07503932
H           5.22996479     -0.32595557      6.35407344
H           5.50955700      0.81438514      7.67428941
H           3.31156768     -0.35163645      8.71050004
H           1.61260250      0.23973048      7.09861499
H           3.52768756      1.53451171      5.37695514
H           1.99567407      0.81391325      4.87239010
H           4.59421295     -0.09469978      4.10194933
H           3.91019592     -2.39536090      3.89784663
H           1.53032766     -2.85789292      4.36584984
H           1.46039936     -1.52796746      5.53442201
H           3.10887219     -2.73579590      6.95678745
H           3.09954353     -4.07849683      5.79565968
H           0.59109857     -4.20815985      6.12424196
H           0.76943944     -3.06124825      7.46152200
H           2.09454064     -5.79715063      7.27964615
H           0.63607913     -5.41356322      8.20352420
H           2.16783174     -5.21734842      9.90130651
H           2.27430056     -3.56513002      9.27969387
H           4.28785924     -4.17010206      7.99565559
H           4.09845493     -5.86478238      8.47512003
H           4.58288329     -5.30640320     10.79639594
H           4.46501583     -3.57562490     10.43972917
H           6.67124647     -5.16065393     11.37685819
          52
 Energy =    -62.36460008 a.u.  #Cluster:  102
C           3.26389274     -1.29858473      3.02312724
C           4.39138433     -1.42381833      4.03718464
C           5.73663303     -1.55997948      3.33923220
C           6.89844419     -1.63455372      4.32215769
C           6.91184619     -2.94952247      5.09805233
C           8.15563678     -3.06073955      5.92480896
C           8.22826540     -3.30284977      7.22022952
C           7.07449134     -3.56555614      8.14284300
C           7.24964201     -4.87389656      8.85940904
C           7.13313149     -5.06994529     10.16047289
C           6.75744703     -4.03223845     11.17467425
C           5.27110732     -4.13018261     11.52654448
C           4.40469777     -3.85675884     10.30660328
C           2.92575066     -3.83061348     10.66393543
C           2.04451194     -3.74662574      9.42328653
C           2.25572702     -2.45172931      8.65339938
C           1.32294541     -2.36415115      7.44749798
C           1.58984061     -1.07048534      6.70250790
O           2.15406067     -1.06695068      5.62607664
O           1.22350549      0.02300991      7.28760743
H           2.31615579     -1.18085486      3.54724675
H           3.22472010     -2.19184759      2.40063446
H           3.43358108     -0.43007093      2.38736910
H           4.21004786     -2.29619748      4.66645533
H           4.40256020     -0.53696984      4.67376316
H           5.87647425     -0.69693953      2.68573859
H           5.73240235     -2.46263104      2.72499104
H           6.82884318     -0.80059840      5.02271908
H           7.83750255     -1.55117575      3.77226544
H           6.88509907     -3.77193637      4.37802322
H           6.02487806     -3.01375898      5.72856984
H           9.06690563     -2.89371772      5.35622558
H           9.19729875     -3.34667859      7.70921972
H           6.14157996     -3.59451773      7.57600215
H           7.00254358     -2.75380175      8.87008325
H           7.50371403     -5.70242680      8.20468123
H           7.26420121     -6.06808305     10.56840778
H           6.95039202     -3.03251130     10.78212409
H           7.34885740     -4.17453771     12.08012161
H           5.03562055     -3.39927396     12.30106350
H           5.05370205     -5.12895401     11.90873996
H           4.57407411     -4.63341281      9.55836538
H           4.69549425     -2.89584543      9.88013749
H           2.72634322     -2.97181939     11.30747099
H           2.68426054     -4.74158713     11.21446406
H           0.99568740     -3.81163785      9.71821860
H           2.27364833     -4.58851737      8.76683575
H           3.28791829     -2.39854069      8.30402901
H           2.06166005     -1.60186872      9.31110363
H           0.29098436     -2.39249037      7.79814716
H           1.50643074     -3.21199847      6.78676041
H           0.79705981     -0.13622083      8.13446516
          52
 Energy =    -62.36435046 a.u.  #Cluster:  103
C           5.51286527     -0.21585116      3.18987680
C           6.31828406     -1.41790638      3.66108631
C           7.32629787     -1.04132055      4.74319202
C           6.67198864     -0.69196001      6.07751645
C           6.08896017     -1.92404368      6.77417887
C           7.17576811     -2.87147778      7.17999780
C           7.45436872     -4.03761252      6.62558135
C           6.70797100     -4.68917418      5.49402891
C           6.32919938     -6.10266802      5.84741987
C           5.30849468     -6.42311015      6.62225823
C           4.39807715     -5.43490887      7.28224809
C           4.79685538     -5.23567852      8.74681915
C           4.08872203     -4.03365696      9.35548946
C           2.59145111     -4.25175238      9.54908169
C           1.87770059     -2.90731814      9.66183565
C           1.66578079     -2.28766665      8.28105580
C           1.62715237     -0.76471667      8.34477701
C           3.02773138     -0.22749209      8.59610268
O           3.97491861     -0.97989439      8.71630233
O           3.16052131      1.05659843      8.66144986
H           6.18678558      0.55320506      2.81189307
H           4.93410416      0.19866987      4.01471550
H           4.82852112     -0.50961787      2.39532725
H           6.85621659     -1.83623873      2.80966546
H           5.63892681     -2.17998293      4.04357180
H           7.90180585     -0.18281131      4.39318885
H           8.01306040     -1.87480299      4.90044766
H           5.87886084      0.03781107      5.91412365
H           7.42068547     -0.24818900      6.73537166
H           5.38087571     -2.41616017      6.10812578
H           5.54763713     -1.59367733      7.66439405
H           7.79869025     -2.50175384      7.99018104
H           8.28546122     -4.63018427      6.99710660
H           7.34770955     -4.69510784      4.60962997
H           5.81109420     -4.11344133      5.26254426
H           6.97539423     -6.87503715      5.44429925
H           5.10665237     -7.46227644      6.86340628
H           3.36723998     -5.78872935      7.23632583
H           4.45673223     -4.47069000      6.77492196
H           5.87478943     -5.07227532      8.79259230
H           4.55280667     -6.13366881      9.31592792
H           4.23371843     -3.17696683      8.69370814
H           4.53744749     -3.79405853     10.32061797
H           2.42603786     -4.84755242     10.44714583
H           2.18200591     -4.79233730      8.69458671
H           2.49787723     -2.24255110     10.26584074
H           0.91424610     -3.02737489     10.15684514
H           0.74523634     -2.67696269      7.84635266
H           2.49789171     -2.57199386      7.63227658
H           0.96147564     -0.43937562      9.14459966
H           1.25977543     -0.35406324      7.40387232
H           2.32337578      1.51623333      8.54952097
          52
 Energy =    -62.36419293 a.u.  #Cluster:  104
C           2.66239017     -1.28012327      3.81536733
C           3.94607996     -1.54468655      3.04536004
C           5.10401743     -1.82864155      3.98909209
C           6.38612902     -2.11881722      3.22365183
C           7.56039076     -2.33506777      4.17359423
C           7.36464118     -3.55957021      5.01426947
C           7.55786073     -3.64201827      6.31759485
C           8.00541089     -2.51155550      7.20487281
C           7.45236766     -2.64098591      8.59852172
C           6.16336342     -2.63011334      8.88294045
C           5.05170206     -2.51752528      7.88555426
C           4.28283114     -3.83649070      7.81751658
C           3.08567427     -3.78971024      6.87378520
C           2.04704472     -2.72880669      7.23388562
C           1.48061790     -2.90316190      8.64802384
C           1.68316680     -1.65734495      9.50625565
C           1.62952624     -1.98974670     10.99390232
C           2.90724437     -2.70773418     11.40439637
O           3.79993352     -2.89921320     10.60120425
O           2.99512214     -3.09210516     12.63448721
H           2.80626558     -0.43853928      4.49311946
H           2.39992381     -2.16020947      4.40155918
H           1.84521486     -1.05214986      3.13240928
H           4.19104432     -0.67442903      2.43416653
H           3.80541409     -2.40302464      2.38641018
H           4.85297439     -2.68866123      4.61330476
H           5.25987163     -0.96488198      4.63862357
H           6.60253662     -1.27704140      2.56437797
H           6.24471493     -3.01355580      2.61471841
H           7.66537017     -1.45468225      4.80959906
H           8.47578326     -2.44790911      3.58791317
H           7.04148404     -4.43309010      4.45468730
H           7.40040310     -4.58234190      6.83677383
H           7.67945431     -1.56315519      6.77079857
H           9.09642899     -2.50230245      7.24556449
H           8.18486436     -2.75520827      9.39021443
H           5.81483546     -2.74755946      9.90601836
H           5.43450451     -2.26680968      6.89682595
H           4.36889070     -1.72830488      8.20655540
H           3.94687128     -4.08350457      8.82620340
H           4.96159759     -4.62127837      7.48158062
H           2.60361698     -4.76875291      6.88096529
H           3.44771454     -3.58918890      5.86370434
H           1.24352357     -2.77773937      6.49921775
H           2.50837869     -1.74398746      7.15353076
H           1.98473819     -3.74126338      9.13053218
H           0.41726447     -3.13772977      8.60494096
H           0.93157664     -0.91082166      9.24966260
H           2.67103831     -1.24045889      9.29434426
H           0.76908918     -2.62505364     11.20515937
H           1.53642055     -1.07785007     11.58428385
H           2.21188175     -2.86762525     13.14499984
          52
 Energy =    -62.36414486 a.u.  #Cluster:  105
C           4.46211103     -0.31849279      0.76902126
C           5.25920177     -1.51033398      1.27505687
C           5.25806506     -1.56556982      2.79485077
C           6.05484960     -2.75410578      3.30849757
C           6.04547140     -2.79927631      4.83133652
C           6.79835982     -3.98471859      5.35035378
C           7.66848319     -3.99498456      6.34300244
C           8.04898913     -2.82063220      7.20252267
C           7.66115391     -3.08449418      8.63415929
C           6.45930268     -2.86515465      9.13411180
C           5.27972241     -2.33727648      8.37720649
C           4.31476446     -3.47975079      8.05132535
C           3.03149349     -2.98085754      7.39464376
C           2.11271639     -2.26041974      8.37734236
C           1.42324695     -3.23170126      9.33789272
C           1.05539327     -2.57166508     10.67090798
C           2.08478089     -2.89915914     11.75839249
C           3.46770037     -2.52558367     11.26313722
O           3.70173343     -1.40185632     10.85274773
O           4.36317822     -3.45337792     11.21558029
H           4.89664207      0.60398351      1.15436801
H           3.43126041     -0.39248290      1.11562166
H           4.46968903     -0.28728170     -0.31957359
H           6.28928651     -1.43655921      0.92252970
H           4.82442286     -2.43213887      0.88516358
H           4.22964861     -1.64346068      3.15350000
H           5.69332560     -0.64560063      3.19030235
H           7.08383234     -2.67753660      2.95262951
H           5.61864717     -3.67554362      2.91824581
H           5.00620468     -2.85742779      5.16575735
H           6.47311062     -1.87303165      5.21639822
H           6.58129431     -4.90460827      4.81389943
H           8.15568887     -4.92260286      6.62929880
H           7.55022656     -1.92000392      6.84344348
H           9.12841304     -2.67037230      7.14282265
H           8.44061373     -3.51818847      9.25179338
H           6.23386891     -3.11468432     10.16824055
H           5.59200373     -1.86296018      7.44723439
H           4.76549077     -1.59495635      8.99289288
H           4.07360096     -4.01068866      8.97419386
H           4.81588809     -4.17447744      7.37653111
H           2.49075986     -3.82876628      6.97127872
H           3.30378029     -2.30246921      6.58423094
H           1.35109356     -1.70942465      7.82501970
H           2.69867805     -1.53758818      8.94644874
H           2.08703366     -4.07429196      9.54099492
H           0.52893413     -3.62358430      8.85334415
H           0.07419524     -2.91184572     11.00129481
H           1.02082886     -1.48925339     10.53615875
H           2.04328808     -3.96496710     11.98557486
H           1.85043687     -2.33285030     12.65990256
H           4.05599639     -4.29318664     11.56402785
          52
 Energy =    -62.36398958 a.u.  #Cluster:  106
C          10.86991788     -1.96272768      5.15190820
C          10.54210350     -3.32964993      4.57229621
C           9.29460829     -3.91202589      5.21876096
C           8.95671588     -5.27743139      4.63925299
C           7.71122629     -5.86969494      5.30217475
C           6.50032698     -5.04855079      4.97775171
C           5.92265023     -4.16682948      5.77264328
C           6.33033347     -3.84268591      7.18373484
C           5.13734392     -3.87042970      8.09752374
C           4.41527582     -2.80560660      8.39209004
C           4.71370938     -1.42098835      7.88620595
C           3.66221932     -0.40798110      8.31717122
C           2.33211826     -0.64162912      7.61162301
C           1.26961366      0.31166357      8.14887108
C          -0.15899642     -0.13771997      7.85667964
C          -0.55259237     -1.44907873      8.53683239
C          -0.27290746     -1.44494196     10.04323154
C           1.17892731     -1.82030358     10.27907560
O           1.65848003     -2.77959902      9.70109769
O           1.89741692     -1.06953888     11.04498696
H          11.76270209     -1.55166673      4.68280346
H          11.03994662     -2.05044972      6.22507596
H          10.03431733     -1.28319377      4.98351039
H          11.38053068     -4.00790881      4.73902623
H          10.37649350     -3.24008970      3.49742678
H           8.45780483     -3.22993025      5.05653364
H           9.45755087     -4.00964281      6.29397973
H           9.80288789     -5.94778404      4.79496431
H           8.78043599     -5.17905125      3.56662168
H           7.87568252     -5.89881325      6.38031254
H           7.56663286     -6.88893076      4.94088319
H           6.12725218     -5.18727435      3.96689849
H           5.06203378     -3.60114530      5.42770246
H           6.77011501     -2.84263321      7.19640551
H           7.08196474     -4.55355074      7.52807547
H           4.86779003     -4.84851868      8.48249827
H           3.54949363     -2.88998721      9.04487867
H           4.76244799     -1.43425724      6.79488649
H           5.69356591     -1.11141318      8.25889285
H           4.00913821      0.60090825      8.09028864
H           3.50516900     -0.48683023      9.39611614
H           2.02169221     -1.67394429      7.77721748
H           2.45524243     -0.49188088      6.53797988
H           1.42697551      1.29701086      7.70792310
H           1.39672455      0.40999124      9.22798398
H          -0.28101238     -0.25230660      6.77836948
H          -0.83855637      0.64377575      8.20120277
H           0.00469504     -2.28069602      8.09796838
H          -1.61447025     -1.61773180      8.35716208
H          -0.90190728     -2.19427142     10.52427570
H          -0.50062167     -0.46669188     10.46642935
H           1.39759573     -0.34649239     11.43286331
          52
 Energy =    -62.36391028 a.u.  #Cluster:  107
C           4.41562914      1.45296915      3.92391134
C           4.90968115      0.62877220      5.10219734
C           6.21334753     -0.08122650      4.76262818
C           6.76980869     -0.86404669      5.94832476
C           5.98119785     -2.14033397      6.24252426
C           6.23217347     -3.21294243      5.22522617
C           6.32763301     -4.50629655      5.47052857
C           6.18642006     -5.16212332      6.81287707
C           5.11550266     -6.21573184      6.79544478
C           4.23377875     -6.42664573      7.75446597
C           4.13094158     -5.64466969      9.03041680
C           2.69752411     -5.59234339      9.54135527
C           2.56145813     -4.86814833     10.87823999
C           2.80378079     -3.36082051     10.77433641
C           4.27773376     -2.95913983     10.92297640
C           4.75157314     -2.10635048      9.75321309
C           4.10932131     -0.71796543      9.74021224
C           4.30384825     -0.13793320      8.35669381
O           5.16882377      0.68003677      8.10950183
O           3.54447092     -0.62052253      7.42596858
H           5.16549959      2.19754162      3.65628710
H           3.48497539      1.95947036      4.17558370
H           4.24608687      0.80140101      3.06661675
H           4.14965428     -0.10616321      5.37337729
H           5.07466699      1.27868101      5.96524931
H           6.94539292      0.66900016      4.45833195
H           6.04741163     -0.75666904      3.92150748
H           6.73894446     -0.21653150      6.82740242
H           7.80725390     -1.13549971      5.74938102
H           4.91330528     -1.90465564      6.25548948
H           6.25454595     -2.50362818      7.23312716
H           6.33559689     -2.84846986      4.20724312
H           6.50667169     -5.20497897      4.65812844
H           5.96755768     -4.41948091      7.57955249
H           7.13640716     -5.64338165      7.06664197
H           5.11837819     -6.83533160      5.90344094
H           3.50528520     -7.22697216      7.66073147
H           4.49739767     -4.63324347      8.86014669
H           4.75959345     -6.10914210      9.79519232
H           2.33730830     -6.61627036      9.65778889
H           2.07196954     -5.08870345      8.80187407
H           3.26418622     -5.29975991     11.59298717
H           1.54853304     -5.03469873     11.24711566
H           2.21711999     -2.85808231     11.54253863
H           2.43814227     -3.02376604      9.80217879
H           4.89275929     -3.85748172     10.97578093
H           4.41998489     -2.39727578     11.84668811
H           4.48113887     -2.61469135      8.82549200
H           5.83627540     -1.99906885      9.78606785
H           4.57306818     -0.08381050     10.49515867
H           3.04439386     -0.81900924      9.94817874
H           2.91399744     -1.26614936      7.75431474
          52
 Energy =    -62.36389236 a.u.  #Cluster:  108
C           4.86080837     -1.91750385      2.22890453
C           4.60995698     -1.81180636      3.72463535
C           5.89275521     -2.03190765      4.51510364
C           5.64117016     -1.90771283      6.01036750
C           6.92146605     -2.00845835      6.83878098
C           7.45326682     -3.40846591      6.87355265
C           7.71624158     -4.11199833      7.95868208
C           7.53589078     -3.64602984      9.37947913
C           7.05642728     -4.76988407     10.25246418
C           5.78672070     -5.10046036     10.39973535
C           4.63368560     -4.39603344      9.74705462
C           3.32244132     -4.67124911     10.47258335
C           2.09408086     -4.16859529      9.71183279
C           1.63849692     -2.77104736     10.12535838
C           2.63736596     -1.65664042      9.82443563
C           3.00737152     -1.55681598      8.35018332
C           1.81354373     -1.26899158      7.44176716
C           2.34584343     -1.03757157      6.04117535
O           3.20594767     -0.19632739      5.84308689
O           1.92045816     -1.79488864      5.08858122
H           3.93690476     -1.75926976      1.67446928
H           5.25355437     -2.90631070      1.99165963
H           5.59116177     -1.16735361      1.92548178
H           3.86868607     -2.55561574      4.02505977
H           4.21185807     -0.82186794      3.96240600
H           6.63093239     -1.28534533      4.21410473
H           6.28953040     -3.02243593      4.28621304
H           4.94926116     -2.69050602      6.32530603
H           5.17206674     -0.94021124      6.19877200
H           6.71323407     -1.66563903      7.85275450
H           7.67069601     -1.34669823      6.39692664
H           7.62011981     -3.84583634      5.89339321
H           8.10662853     -5.12188673      7.87332115
H           6.81687484     -2.82514485      9.40802448
H           8.49373907     -3.27697287      9.75339337
H           7.83519378     -5.34721880     10.73938430
H           5.50659924     -5.94448872     11.02283915
H           4.53877149     -4.74443830      8.71457615
H           4.83237923     -3.32396401      9.71764277
H           3.34878482     -4.21144508     11.46180577
H           3.23880260     -5.75186153     10.60115888
H           1.26269319     -4.84917824      9.89951528
H           2.30696698     -4.18677724      8.64223283
H           1.44233744     -2.77721033     11.19902638
H           0.70269380     -2.54897935      9.61021591
H           3.54548806     -1.82139673     10.40553255
H           2.19771056     -0.70832210     10.13851925
H           3.47533591     -2.48749249      8.02859296
H           3.73150139     -0.74980435      8.21833506
H           1.30599996     -0.37061373      7.79549704
H           1.11549697     -2.10536493      7.45470363
H           1.25173080     -2.42259379      5.37493917
          52
 Energy =    -62.36385385 a.u.  #Cluster:  109
C           6.80830171     -0.85474531      7.19475385
C           6.25266509     -0.61804836      8.58985112
C           5.67674666      0.78417652      8.75021020
C           4.38322335      1.00137231      7.97077811
C           3.19885437      0.26989562      8.60551788
C           1.94089944      0.53741382      7.83536478
C           1.52018633     -0.17604207      6.80586199
C           2.23703490     -1.36683700      6.24345004
C           3.24940033     -0.95683653      5.20432221
C           4.21360492     -1.75022174      4.77550856
C           4.41429727     -3.14875023      5.27507538
C           5.77736890     -3.71652694      4.90455547
C           6.00016792     -5.06882051      5.57390108
C           6.26846476     -4.91157659      7.06968653
C           5.73885229     -6.09880056      7.86255716
C           5.81154299     -5.88523321      9.37395600
C           5.15713870     -4.56868649      9.81434663
C           3.84606014     -4.36120640      9.07525964
O           3.03141906     -5.25980430      8.97719280
O           3.66572302     -3.21237093      8.50820319
H           7.58928903     -0.12540304      6.97947586
H           6.01984730     -0.75518252      6.44970450
H           7.22890414     -1.85663148      7.12424724
H           7.05229238     -0.75985534      9.31744254
H           5.47609727     -1.35877559      8.79483704
H           6.42404300      1.50172481      8.40641457
H           5.47584401      0.97281645      9.80611019
H           4.50912821      0.65593082      6.94405732
H           4.15650120      2.06830614      7.95051710
H           3.08921528      0.61377242      9.63520609
H           3.40510187     -0.80046642      8.61610853
H           1.38553128      1.41450242      8.15281934
H           0.61838129      0.11237685      6.27528340
H           1.51983748     -2.05143166      5.78352177
H           2.75043759     -1.91152450      7.04157312
H           3.13052054      0.04728324      4.81176712
H           4.91666821     -1.41915409      4.01835243
H           3.63422690     -3.79753499      4.86646245
H           4.30199437     -3.15018900      6.36298359
H           6.55713070     -3.02623601      5.22916689
H           5.83455039     -3.82377497      3.82058686
H           6.83392352     -5.58846200      5.10179701
H           5.09811068     -5.66874941      5.43637739
H           5.76678566     -4.00723656      7.41400812
H           7.33721252     -4.79134710      7.24990689
H           6.30784408     -6.99086805      7.59796720
H           4.69620114     -6.26543230      7.58221416
H           6.85497990     -5.88733528      9.69131200
H           5.29760279     -6.71433044      9.86257758
H           5.82991382     -3.73517828      9.61531006
H           4.96624384     -4.60875144     10.88674193
H           4.39515297     -2.60650300      8.67384593
          52
 Energy =    -62.36384607 a.u.  #Cluster:  110
C           7.53392945     -1.00975350      4.33395684
C           6.45035976     -0.03844024      4.78032894
C           6.10739776     -0.20134723      6.25660890
C           5.54136688     -1.57146648      6.62224925
C           4.25602818     -1.92524284      5.85480633
C           4.53869141     -2.68568917      4.59338564
C           4.65096589     -4.00125314      4.52848107
C           4.50095502     -4.91497269      5.70846033
C           5.73996004     -4.93729175      6.56374537
C           5.75476982     -5.32551280      7.82486308
C           4.55648171     -5.83781637      8.56811477
C           4.73841035     -5.74085624     10.07783039
C           4.65082602     -4.29945827     10.57058669
C           3.20766494     -3.81438889     10.62477264
C           3.10055027     -2.40347423     11.19541246
C           3.53122115     -1.33745962     10.19550212
C           2.49304833     -1.11495609      9.10303759
C           3.00637554     -0.09958835      8.10123952
O           4.07419135      0.45758511      8.26971403
O           2.28904802      0.10578250      7.04462022
H           8.41585966     -0.89111361      4.96355889
H           7.80826999     -0.81596593      3.29799123
H           7.17868850     -2.03638344      4.41466825
H           5.55548174     -0.18865827      4.17641455
H           6.80308798      0.98083329      4.61750474
H           5.37342010      0.55603776      6.54372379
H           7.01352902     -0.03793569      6.84312525
H           5.32582075     -1.56167296      7.69132872
H           6.28965872     -2.34127449      6.43621086
H           3.71534610     -1.00595114      5.62312704
H           3.62614846     -2.53988681      6.50069286
H           4.67197608     -2.08524486      3.70000004
H           4.88809456     -4.48381633      3.58636777
H           4.28620269     -5.93024669      5.36785080
H           3.65897323     -4.58613115      6.32482905
H           6.64802188     -4.60988653      6.06903325
H           6.68051487     -5.32466736      8.39220490
H           4.39445674     -6.88271337      8.29128581
H           3.66857590     -5.27606756      8.26921216
H           5.71369146     -6.15631350     10.33610716
H           3.96641947     -6.32632660     10.57917121
H           5.23542349     -3.65717078      9.90969784
H           5.07178210     -4.23534756     11.57541201
H           2.64048094     -4.49998809     11.25665294
H           2.77555490     -3.83478153      9.62316856
H           3.72789505     -2.34518089     12.08655593
H           2.06704487     -2.20519690     11.48410952
H           4.47298543     -1.63196328      9.72708786
H           3.69204274     -0.39030656     10.71374234
H           1.55903833     -0.76185039      9.54180584
H           2.29162766     -2.04988760      8.57849976
H           1.47948346     -0.41200399      7.04545764
          52
 Energy =    -62.36350274 a.u.  #Cluster:  111
C           7.83569726      0.60130259      7.43333251
C           7.19145554     -0.75072534      7.70023729
C           6.30648348     -0.72942282      8.94165478
C           5.02434424      0.07365743      8.74967643
C           4.03721752     -0.63485237      7.83605040
C           2.77929056      0.15891934      7.64519315
C           1.73837266     -0.25441847      6.94593821
C           1.70513322     -1.57269732      6.22229052
C           2.40290176     -1.45632528      4.89433219
C           3.37202109     -2.23643368      4.45387292
C           3.97261642     -3.40190785      5.17682289
C           5.49582561     -3.38538539      5.08364969
C           6.10460694     -4.51702899      5.90343020
C           6.03943986     -4.21202884      7.39586340
C           6.08435308     -5.48131740      8.23397853
C           5.87783874     -5.20800814      9.72327645
C           4.62426908     -4.36668992      9.99459476
C           3.46333857     -4.87186494      9.15552739
O           3.23339458     -6.06430703      9.06389229
O           2.77037851     -3.99352399      8.50737910
H           8.42650822      0.90413439      8.29805860
H           7.07080559      1.35498444      7.24889567
H           8.48631994      0.54253583      6.56203636
H           7.97707392     -1.49372267      7.84099552
H           6.59582049     -1.04559866      6.83545261
H           6.87852576     -0.30471910      9.76833552
H           6.02996095     -1.75274777      9.20135230
H           5.26342772      1.05108861      8.32809948
H           4.55091969      0.22651515      9.72060526
H           3.79064425     -1.60982983      8.27182050
H           4.50052176     -0.82558509      6.86533695
H           2.76854719      1.12682577      8.13608482
H           0.86157360      0.37317470      6.83000668
H           0.66899503     -1.87254667      6.05339701
H           2.19417111     -2.33454998      6.83070821
H           2.04537564     -0.63239612      4.28340847
H           3.80859959     -2.05801789      3.47470627
H           3.60990169     -4.33209095      4.73081165
H           3.67347639     -3.38776030      6.22622333
H           5.86880317     -2.43213590      5.46257622
H           5.78514086     -3.48383636      4.03663358
H           7.14173711     -4.67949223      5.60895537
H           5.54070572     -5.43048845      5.70262153
H           5.10649910     -3.68572687      7.59766381
H           6.86393277     -3.55664612      7.67674866
H           7.04618109     -5.97451777      8.08818555
H           5.29922587     -6.15672421      7.88653406
H           6.74920620     -4.68556493     10.11982263
H           5.77913824     -6.16419282     10.23929697
H           4.82284441     -3.32075755      9.76133264
H           4.36729651     -4.44008143     11.05133416
H           3.07478983     -3.09424959      8.67070146
          52
 Energy =    -62.36335606 a.u.  #Cluster:  112
C           6.26757418     -2.98151118      6.19980698
C           5.97802732     -1.81020260      7.12462792
C           6.86113777     -0.62132505      6.77611448
C           6.56883534      0.59849505      7.64400226
C           5.21969420      1.22963638      7.30904989
C           5.18150871      1.69885955      5.88425101
C           4.13293546      1.68076669      5.08312225
C           2.76088699      1.18922245      5.44619936
C           2.35363800      0.04040731      4.56743207
C           1.99491999     -1.15913656      4.98453581
C           1.93967424     -1.61668029      6.41024027
C           2.43232905     -3.05082710      6.55600906
C           2.57380773     -3.42314246      8.02251741
C           3.16784554     -4.81077209      8.20070420
C           3.44580264     -5.09432182      9.66951515
C           4.08740014     -6.45871041      9.89888950
C           5.48730256     -6.56851775      9.28083976
C           6.37936771     -5.48181732      9.85202556
O           6.99597423     -5.64965785     10.88720232
O           6.41397824     -4.35744440      9.21024698
H           6.08872047     -2.68730900      5.16563576
H           5.62263578     -3.82487810      6.44375123
H           7.30797621     -3.28783046      6.30694191
H           6.16196949     -2.10871215      8.15820548
H           4.92879522     -1.53026407      7.02986452
H           6.70864104     -0.35853941      5.72723096
H           7.90437930     -0.91339890      6.90717815
H           7.34878780      1.34437543      7.48335852
H           6.57964610      0.29897168      8.69273969
H           5.05665140      2.08223137      7.97282187
H           4.42508742      0.50520606      7.48949115
H           6.12962118      2.08972070      5.52489654
H           4.21862764      2.03433608      4.05977594
H           2.04970520      2.00684299      5.29822403
H           2.72982927      0.89546573      6.49405605
H           2.37844235      0.26807103      3.50572113
H           1.70867169     -1.92230146      4.26617357
H           0.91248243     -1.55772550      6.77969122
H           2.56295618     -0.97419863      7.03429154
H           3.40705366     -3.14428940      6.07499645
H           1.73594907     -3.73303509      6.06620492
H           1.59691589     -3.37732143      8.50723965
H           3.23346070     -2.69740219      8.50315508
H           4.10298024     -4.85737565      7.63941344
H           2.48415921     -5.56123515      7.80035170
H           2.50324587     -5.04856387     10.21738848
H           4.10447640     -4.31244105     10.05283886
H           3.44475214     -7.22837219      9.46792537
H           4.17093075     -6.63649686     10.97255714
H           5.41520083     -6.46897139      8.19858095
H           5.90310679     -7.54566139      9.52602948
H           5.89219628     -4.38378856      8.40366971
          52
 Energy =    -62.36317317 a.u.  #Cluster:  113
C           7.89565001     -2.77552636      8.74641118
C           7.86746492     -1.73882494      7.63356641
C           6.59114425     -1.82927205      6.81019920
C           6.56152400     -0.74863781      5.73736858
C           5.39069139     -0.92139034      4.77999013
C           4.06177199     -0.71598213      5.44782728
C           2.90628898     -0.77730138      4.81111319
C           2.78846623     -1.04553018      3.33297895
C           3.37742798     -2.36390655      2.88776026
C           3.11850206     -3.53906479      3.43260935
C           2.27780100     -3.75936605      4.65150262
C           3.18115390     -3.98247406      5.86467633
C           2.41417895     -3.89624821      7.17356577
C           3.38054326     -3.86507600      8.34610602
C           2.67319859     -3.64598272      9.67445106
C           3.67760570     -3.40099288     10.79474497
C           4.29798019     -2.00659072     10.70127330
C           5.40723961     -1.88362741     11.72647204
O           6.57538404     -1.94571920     11.39358865
O           5.05172299     -1.75299640     12.96243480
H           7.13303918     -2.54615604      9.49270742
H           8.86756981     -2.77722476      9.23743660
H           7.70372868     -3.76476166      8.33203434
H           8.72116248     -1.89504943      6.97155346
H           7.94413444     -0.73937035      8.06499592
H           5.72793149     -1.72052977      7.46903727
H           6.53882454     -2.81018428      6.33323080
H           7.49373112     -0.79869492      5.17221915
H           6.49827473      0.22927332      6.21770431
H           5.43066798     -1.92884819      4.35762934
H           5.48410143     -0.21241069      3.95265805
H           4.09777270     -0.50463685      6.51100341
H           1.97518737     -0.61494699      5.34167725
H           3.30237692     -0.24380568      2.79744566
H           1.73501310     -1.02198434      3.04732920
H           4.03405071     -2.30278811      2.02641604
H           3.58681458     -4.43594327      3.03851451
H           1.63603895     -4.63193950      4.51981578
H           1.64801488     -2.88843582      4.83771607
H           3.95151242     -3.20968253      5.87224380
H           3.67037480     -4.95387941      5.78524578
H           1.73577383     -4.74532292      7.26905835
H           1.82522227     -2.97640945      7.17794283
H           4.08630818     -3.04904731      8.17872963
H           3.94207065     -4.80029453      8.38129523
H           2.06655681     -4.52322441      9.90392211
H           2.01559770     -2.77844095      9.59103080
H           4.46780800     -4.15158822     10.72679477
H           3.18629730     -3.49235297     11.76460983
H           3.52220505     -1.26222867     10.88128425
H           4.71888341     -1.85837572      9.70653551
H           4.09679859     -1.72668220     13.07051575
          52
 Energy =    -62.36306126 a.u.  #Cluster:  114
C           3.53243159     -1.34419968      1.23155565
C           4.89264331     -1.90235601      1.61912345
C           4.98647894     -2.12075036      3.12100172
C           6.34336855     -2.67805182      3.52174257
C           6.41389223     -2.88748199      5.02777691
C           7.72592609     -3.46404652      5.46081416
C           8.38666460     -3.15603215      6.56159101
C           7.92442474     -2.18142614      7.61067375
C           7.31708868     -2.92196482      8.77167203
C           6.03457146     -2.96115992      9.08000590
C           4.91282157     -2.29342171      8.34682878
C           3.97115932     -3.34506840      7.76341919
C           2.80945020     -2.73698603      6.98353702
C           1.93269999     -1.79691079      7.80998326
C           1.33419723     -2.47404140      9.04931291
C           1.68529788     -1.73346279     10.33746461
C           1.60663594     -2.65414073     11.55105435
C           2.79514101     -3.60527486     11.55327631
O           3.64897100     -3.53980754     10.68996696
O           2.85150967     -4.46995142     12.51139189
H           3.36915466     -0.39205350      1.73652528
H           2.75025439     -2.04045526      1.53424971
H           3.47423381     -1.19025346      0.15504556
H           5.67415125     -1.20585093      1.31113935
H           5.05544856     -2.85363748      1.10994844
H           4.20767386     -2.81885154      3.43490846
H           4.82526530     -1.17108528      3.63521563
H           7.12400298     -1.98069175      3.21264176
H           6.50614247     -3.63108591      3.01505976
H           5.61136081     -3.57317373      5.31435423
H           6.23236225     -1.93398213      5.52528530
H           8.12878946     -4.20341087      4.77405433
H           9.32309544     -3.65397874      6.79326671
H           7.19638736     -1.49175196      7.18468900
H           8.78275196     -1.60830984      7.96708894
H           8.03630224     -3.47979800      9.36408254
H           5.69132899     -3.54274261      9.93293079
H           5.28582420     -1.66051737      7.54252629
H           4.35431081     -1.67224474      9.05026794
H           3.59038385     -3.95494724      8.58412810
H           4.53742290     -3.99148230      7.09204447
H           2.18909372     -3.54944730      6.60130018
H           3.21487006     -2.18161566      6.13576512
H           1.13619444     -1.42016499      7.16838113
H           2.53478597     -0.94470050      8.12713515
H           1.72253264     -3.49057406      9.11961051
H           0.25026929     -2.54088470      8.95913569
H           1.02284084     -0.87656140     10.45942378
H           2.71287607     -1.36820325     10.26481910
H           0.68039413     -3.22865044     11.52609397
H           1.62423772     -2.07102264     12.47220830
H           2.10706485     -4.39591042     13.11539907
          52
 Energy =    -62.36302072 a.u.  #Cluster:  115
C           7.53252111      1.91235718      4.71783765
C           7.35600079      1.33993720      6.11692462
C           6.35337120      0.19236932      6.13841797
C           6.88528357     -1.05819769      5.45480225
C           5.86631174     -2.18874684      5.51411554
C           6.37777250     -3.42224000      4.83371482
C           6.12651713     -4.66704130      5.19453855
C           5.26509113     -5.07274429      6.35151433
C           5.78531908     -6.29338607      7.05119087
C           5.04711610     -7.20731251      7.65547811
C           3.55322924     -7.18865231      7.77475277
C           3.11968623     -6.74145938      9.17497394
C           3.52572808     -5.30079542      9.46714189
C           2.70133540     -4.29630832      8.67433306
C           3.25780528     -2.88936515      8.82166426
C           2.47964409     -1.89568684      7.97101202
C           3.10217618     -0.50477553      8.02485986
C           2.95965344      0.10239825      9.40977119
O           2.43938526     -0.51623855     10.31898162
O           3.42260816      1.29919197      9.57016513
H           6.57071850      2.25722202      4.33775249
H           7.92364728      1.15013674      4.04479872
H           8.22685422      2.75110459      4.73876902
H           7.00638859      2.13270369      6.77949935
H           8.31723927      0.97743959      6.48464926
H           5.43387833      0.50751566      5.64137634
H           6.11601979     -0.05863693      7.17370736
H           7.80560547     -1.37378817      5.94973222
H           7.10975399     -0.84106103      4.40947573
H           4.94798181     -1.85500080      5.02280372
H           5.62796499     -2.40168652      6.55823031
H           7.00283883     -3.22081388      3.96833636
H           6.54412896     -5.49602197      4.63123800
H           4.24810990     -5.25811223      5.99606708
H           5.21146627     -4.24981126      7.06886947
H           6.86725902     -6.38546373      7.04314401
H           5.52561449     -8.04326989      8.15756430
H           3.16297129     -8.19152867      7.59484057
H           3.12414875     -6.51185123      7.03531414
H           3.58328875     -7.40387347      9.90736801
H           2.03581774     -6.82756301      9.25974245
H           4.58010121     -5.16731987      9.21776326
H           3.39750390     -5.09616536     10.53103904
H           1.66602817     -4.31867450      9.01908680
H           2.71863487     -4.56334415      7.61694887
H           4.30173910     -2.89070734      8.50089145
H           3.21183263     -2.58668351      9.86971247
H           1.45239529     -1.84046473      8.33804213
H           2.46518154     -2.25425541      6.94044104
H           2.62628979      0.15242079      7.29660381
H           4.16225946     -0.57404760      7.77841243
H           3.80387032      1.65450766      8.76202421
          52
 Energy =    -62.36289859 a.u.  #Cluster:  116
C           4.91850281     -2.07173332      0.43202939
C           6.04564488     -2.87537088      1.06430493
C           6.15931561     -2.61544533      2.56208299
C           6.67469648     -1.21552990      2.86715276
C           6.81537427     -1.00271012      4.37579768
C           7.89673099     -1.87568648      4.93746760
C           7.72541351     -2.97611447      5.64672613
C           6.40496612     -3.54624941      6.08553075
C           6.23840393     -3.37229377      7.56931436
C           5.38895219     -2.55420798      8.16193499
C           4.37806031     -1.66974730      7.49411542
C           3.01747654     -1.81519878      8.17138619
C           2.42096615     -3.19133555      7.90155290
C           1.25763874     -3.52660281      8.83228641
C           1.73103739     -3.78772614     10.26655262
C           1.51325887     -2.59693814     11.19651966
C           2.38378175     -2.70996937     12.44460907
C           3.85217400     -2.52478378     12.08992618
O           4.20373216     -2.31344481     10.94624299
O           4.69977350     -2.60905300     13.06264333
H           5.10786937     -1.00445003      0.54204165
H           3.97497984     -2.31391294      0.92165573
H           4.83790653     -2.30577732     -0.62859398
H           6.99096614     -2.61251145      0.58685062
H           5.85599501     -3.93675530      0.89927803
H           6.84407842     -3.34354240      3.00022670
H           5.17820336     -2.74254784      3.02403664
H           5.98210431     -0.47535949      2.46660019
H           7.64832344     -1.07821492      2.39312658
H           5.85739297     -1.22441903      4.84615028
H           7.06431608      0.04261719      4.56539755
H           8.90148399     -1.55659251      4.67429278
H           8.58593307     -3.53440786      6.00333639
H           6.38925206     -4.61276559      5.84974480
H           5.58809824     -3.06242692      5.55229924
H           6.93065641     -3.96185594      8.16338941
H           5.36297402     -2.49488185      9.24851558
H           4.28149580     -1.92102159      6.43744876
H           4.70771261     -0.63121434      7.57241945
H           2.33310235     -1.04491316      7.81655930
H           3.16452236     -1.68863405      9.24449716
H           3.19883003     -3.94639664      8.03765057
H           2.08282038     -3.23115798      6.86464015
H           0.75733077     -4.41612836      8.44889722
H           0.54406047     -2.70128297      8.82921419
H           2.79653877     -4.02276873     10.23730947
H           1.20700409     -4.64896898     10.68174801
H           0.45964698     -2.54226307     11.47213673
H           1.77930848     -1.67441871     10.67845809
H           2.24872498     -3.69121590     12.90120569
H           2.09929154     -1.95105589     13.17386859
H           4.27199290     -2.77959369     13.90668272
          52
 Energy =    -62.36287943 a.u.  #Cluster:  117
C           3.45958520     -2.07925610      4.50290508
C           4.69390147     -1.63149642      5.26818865
C           5.93769389     -1.69308520      4.39404553
C           7.19290210     -1.30478298      5.16886954
C           7.64491649     -2.42583073      6.10841289
C           8.18960910     -3.58371726      5.32748881
C           7.62536358     -4.76917966      5.18623416
C           6.33616767     -5.20165180      5.83023396
C           6.61162703     -5.90765643      7.12909936
C           6.17294416     -5.54587675      8.32025348
C           5.26224569     -4.39706706      8.62191853
C           3.93690282     -4.88885650      9.20074650
C           2.96508169     -3.73453229      9.41180046
C           2.35406732     -3.25368836      8.09980653
C           1.69102437     -1.89220042      8.28088896
C           2.72842349     -0.76998200      8.26677662
C           2.28669202      0.41563736      9.11679167
C           2.35060648      0.03740174     10.58874325
O           2.75471326     -1.05589849     10.93722324
O           1.95912100      0.92699609     11.44061964
H           3.58814586     -3.10979198      4.17191019
H           3.31544318     -1.44334658      3.62943694
H           2.57745386     -2.01770862      5.13841459
H           4.82462748     -2.27831248      6.13611533
H           4.55375399     -0.60826033      5.61989180
H           5.80497508     -1.01192702      3.55210279
H           6.05361019     -2.70622717      4.00387450
H           6.98276715     -0.40559091      5.74917741
H           8.00402523     -1.09091895      4.47135479
H           6.80333426     -2.73747517      6.72517822
H           8.42904575     -2.04058202      6.76243675
H           9.12579735     -3.36807547      4.81965604
H           8.11919470     -5.53986360      4.60274909
H           5.81885191     -5.89008047      5.15855593
H           5.69409344     -4.33892813      5.99845508
H           7.25978949     -6.77332717      7.02668683
H           6.44081175     -6.13225826      9.19518718
H           5.06369533     -3.82219576      7.71794079
H           5.73555340     -3.73540674      9.35103119
H           4.13361415     -5.38620639     10.15140042
H           3.48817848     -5.60900401      8.51421189
H           3.49351519     -2.90453154      9.88747523
H           2.15885437     -4.04830290     10.07663100
H           1.62412740     -3.98838638      7.75802164
H           3.13341047     -3.16357017      7.34208906
H           1.17064508     -1.89309005      9.24032805
H           0.96059540     -1.71924950      7.49076902
H           2.91056027     -0.45712982      7.23929401
H           3.66656931     -1.14685978      8.68093717
H           1.26753567      0.70375398      8.85795685
H           2.94009581      1.27131131      8.94463090
H           1.66897183      1.73858539     11.01447556
          52
 Energy =    -62.36270361 a.u.  #Cluster:  118
C           7.26816100     -0.61988153      7.31240186
C           6.69352046     -1.03279384      8.65908976
C           6.07048446      0.13980169      9.40941784
C           4.79516850      0.65409630      8.75007482
C           3.62776864     -0.32040408      8.91647494
C           2.46293573      0.10505272      8.07454107
C           2.36775284     -0.15746070      6.78369229
C           3.38554632     -0.94916443      6.01307057
C           2.86554401     -1.42461973      4.69310468
C           3.01183626     -2.64529498      4.21076969
C           3.74645572     -3.75097302      4.91022203
C           5.25956938     -3.62612854      4.71290620
C           6.00083012     -4.67020101      5.54102050
C           6.02266570     -4.28905771      7.01936233
C           6.04328626     -5.51569761      7.92057359
C           5.87563058     -5.16605857      9.39874465
C           4.64176472     -4.29142665      9.66159505
C           3.46620501     -4.77205314      8.82910131
O           3.17183032     -5.95274175      8.78538429
O           2.83469941     -3.88761805      8.12659260
H           8.01063892      0.16609651      7.45117348
H           6.47763509     -0.24797375      6.66138179
H           7.73995360     -1.47540231      6.83126169
H           7.49162916     -1.45965417      9.26720384
H           5.93777687     -1.80197636      8.50162471
H           6.80085039      0.94948265      9.45554284
H           5.83125160     -0.17172879     10.42748857
H           4.97674308      0.81174280      7.68658622
H           4.51731191      1.60916974      9.19729916
H           3.34877592     -0.36704381      9.96938102
H           3.95275099     -1.31501193      8.60094210
H           1.70351134      0.69598766      8.57568340
H           1.52385280      0.19958690      6.20212953
H           3.72453610     -1.79387067      6.61607038
H           4.26023420     -0.31486483      5.83639218
H           2.33349645     -0.66747292      4.12457068
H           2.61912055     -2.89329433      3.22974118
H           3.42349738     -4.71912037      4.52554892
H           3.52818384     -3.71338354      5.98050873
H           5.58168068     -2.63112369      5.02338203
H           5.48850489     -3.75830746      3.65482541
H           7.02143623     -4.78302020      5.17498676
H           5.48626765     -5.62655786      5.42694552
H           5.12784032     -3.70562240      7.23586595
H           6.88974163     -3.66287712      7.23025307
H           6.98505892     -6.04802299      7.78191870
H           5.22980813     -6.18103312      7.62228518
H           6.76411299     -4.63932110      9.74907503
H           5.77689796     -6.09502665      9.96211474
H           4.86506436     -3.25460663      9.41415214
H           4.38598670     -4.34497764     10.71972292
H           3.17861765     -2.99961795      8.26109055
          52
 Energy =    -62.36269327 a.u.  #Cluster:  119
C           5.26512185     -0.83116601     10.11345052
C           6.13858383     -0.06735585      9.13130789
C           5.32567526      0.40929484      7.93813857
C           6.15211663      1.27523629      7.00068399
C           5.33680147      1.68916456      5.77518602
C           5.11801405      0.52649983      4.85538345
C           3.95131406     -0.01171041      4.55466324
C           2.62006406      0.44053999      5.09942420
C           1.56855921     -0.62429820      4.94914487
C           1.59732233     -1.78546650      5.57864401
C           2.67974683     -2.22164479      6.51627758
C           3.57990393     -3.27025538      5.85968394
C           4.85428841     -3.49795411      6.66102316
C           4.57953807     -4.09602309      8.03209821
C           5.88097551     -4.35423998      8.77905556
C           5.65365027     -4.73460535     10.23923401
C           4.70146061     -5.92500292     10.41502159
C           5.15377908     -7.10287044      9.57216216
O           5.09636723     -7.04569450      8.35509290
O           5.61574124     -8.14305505     10.17889201
H           4.48530266     -0.17509738     10.50026125
H           5.85921606     -1.20769445     10.94477810
H           4.79346506     -1.67194397      9.60570546
H           6.94367360     -0.71384593      8.77850887
H           6.57894765      0.79670297      9.63172276
H           4.46758373      0.98413143      8.29203313
H           4.95459045     -0.46039242      7.39228714
H           7.03216811      0.71775255      6.67491905
H           6.48086583      2.16497180      7.53917661
H           5.87845134      2.46864333      5.23557028
H           4.38142851      2.09468937      6.10965377
H           6.03126831      0.12193861      4.42807269
H           3.89465333     -0.84751826      3.86461969
H           2.30552601      1.34369480      4.57279849
H           2.73753355      0.69296617      6.15593799
H           0.76187487     -0.39726336      4.26050737
H           0.81982889     -2.52391838      5.40772341
H           2.23778034     -2.64573702      7.41910953
H           3.29510464     -1.36710769      6.79971867
H           3.84704929     -2.92349457      4.86039328
H           3.03378725     -4.21038508      5.76924210
H           5.36669155     -2.54214841      6.78877755
H           5.51189008     -4.17324186      6.11064293
H           4.04172799     -5.03823470      7.90902570
H           3.96484982     -3.40901363      8.61514596
H           6.48664377     -3.44721198      8.74773392
H           6.42457641     -5.14947846      8.26576055
H           5.23278384     -3.87368838     10.76138374
H           6.61358872     -4.98007343     10.69622602
H           3.70370316     -5.62850512     10.09114048
H           4.66411267     -6.19610203     11.47000086
H           5.60331113     -8.05405747     11.13595675
          52
 Energy =    -62.36268525 a.u.  #Cluster:  120
C           5.35914503     -0.84238633     10.09828761
C           6.21768424     -0.06275321      9.11542901
C           5.39166307      0.41437054      7.93144910
C           6.20533299      1.29050262      6.99220854
C           5.37354001      1.71895221      5.78306062
C           5.12612524      0.56295095      4.86215571
C           3.94764036      0.04277747      4.57595944
C           2.63116194      0.51409796      5.14011299
C           1.56084520     -0.53337219      5.00170230
C           1.58042630     -1.69701266      5.62684995
C           2.66903613     -2.15486494      6.54681191
C           3.53259495     -3.22554043      5.87732139
C           4.80401501     -3.49902583      6.66901986
C           4.51848988     -4.09498439      8.03889393
C           5.81527932     -4.41651260      8.76937640
C           5.58798969     -4.78155853     10.23349356
C           4.57702231     -5.91990580     10.42484650
C           4.95746378     -7.12245472      9.58131956
O           4.88823942     -7.06636527      8.36483099
O           5.37236890     -8.18310440     10.18660960
H           4.57568191     -0.19699773     10.49555433
H           5.96297340     -1.21895438     10.92256045
H           4.89209231     -1.68404338      9.58787801
H           7.02691728     -0.69821096      8.75226497
H           6.65277937      0.80217324      9.61894729
H           4.53296306      0.98198139      8.29544984
H           5.02165798     -0.45492438      7.38416863
H           7.08044028      0.73628985      6.64810527
H           6.54196013      2.17407514      7.53599882
H           5.91410206      2.49539114      5.23797251
H           4.42849403      2.13296925      6.13593362
H           6.02765329      0.14674987      4.42136777
H           3.86888784     -0.79017037      3.88462806
H           2.32378850      1.42363820      4.62029681
H           2.76695434      0.76162326      6.19560350
H           0.74755077     -0.29095849      4.32621249
H           0.78858829     -2.42225137      5.46532397
H           2.23277547     -2.56730339      7.45784836
H           3.30860206     -1.31427590      6.81784356
H           3.80406470     -2.87995895      4.87875543
H           2.95683348     -4.14756981      5.78393271
H           5.34870808     -2.56141041      6.79811735
H           5.43502072     -4.19296947      6.11075749
H           3.93794141     -5.01149753      7.91564626
H           3.94156256     -3.38577404      8.63379129
H           6.46510722     -3.54103765      8.72780321
H           6.31162718     -5.23914366      8.25143225
H           5.21975790     -3.89861757     10.75867290
H           6.53970231     -5.07611739     10.67853167
H           3.59244936     -5.57261170     10.11125944
H           4.53785403     -6.18527419     11.48121585
H           5.37623573     -8.09044363     11.14338798
          52
 Energy =    -62.36267428 a.u.  #Cluster:  121
C           8.20394504     -0.89394432      9.76847859
C           7.33901794      0.30763787      9.42309321
C           6.16897617     -0.09686525      8.54046180
C           5.27492974      1.09093481      8.21917618
C           4.09293856      0.67932133      7.35358966
C           4.50727650      0.28351923      5.96618206
C           3.68254816     -0.25291117      5.08692121
C           2.23404941     -0.53962319      5.38521072
C           1.66583311     -1.56614380      4.44999167
C           1.84791880     -2.86800723      4.58194727
C           2.65978746     -3.50998760      5.66418525
C           4.06599820     -3.83359806      5.15643397
C           4.94374086     -4.39252841      6.26899321
C           5.40787979     -3.29971928      7.22480763
C           6.07010050     -3.87460751      8.48155609
C           5.19768520     -3.71453902      9.72347596
C           3.86996370     -4.47417237      9.63003318
C           4.13935703     -5.96330099      9.53294908
O           4.56211430     -6.44927670      8.49786564
O           3.94406353     -6.68225616     10.58634999
H           7.60789046     -1.63138792     10.30594443
H           9.04588525     -0.59508873     10.39129702
H           8.58198448     -1.34909530      8.85299399
H           7.94020476      1.05239709      8.89906373
H           6.95423554      0.75532221     10.34091094
H           5.57787227     -0.85669616      9.05591547
H           6.55078586     -0.52804099      7.61351760
H           5.86064903      1.84843146      7.69517744
H           4.91023890      1.51729845      9.15486478
H           3.38045298      1.50556416      7.28801521
H           3.58055232     -0.16145513      7.82986912
H           5.54241268      0.48412611      5.70995236
H           4.01260604     -0.51115609      4.08657272
H           1.66642540      0.39061259      5.30827679
H           2.15536014     -0.89165205      6.41735477
H           1.10281735     -1.17472966      3.60929614
H           1.43755637     -3.55673220      3.84983083
H           2.18655974     -4.43802184      5.98982441
H           2.73803189     -2.84055599      6.52209811
H           4.52589559     -2.92448314      4.76492794
H           3.98527890     -4.56176155      4.34841783
H           5.82285350     -4.87265747      5.83659777
H           4.38170482     -5.14634032      6.82516025
H           4.55270907     -2.69146290      7.52290828
H           6.10740299     -2.65266284      6.69453874
H           7.01434090     -3.36367659      8.66580715
H           6.27947354     -4.93341774      8.31807331
H           4.98734337     -2.65182170      9.85986143
H           5.74470610     -4.07227835     10.59747202
H           3.33305358     -4.14474257      8.74057657
H           3.26984079     -4.24991030     10.51171637
H           3.61356726     -6.17168609     11.33079732
          52
 Energy =    -62.36267215 a.u.  #Cluster:  122
C           5.33737580     -0.85666587     10.06620921
C           6.14939494      0.01844793      9.12503217
C           5.32500673      0.42445848      7.91374945
C           6.08587202      1.37899247      7.00723973
C           5.25655014      1.74420517      5.77584050
C           5.12870051      0.57540810      4.84671687
C           4.00478205     -0.04197651      4.53540266
C           2.64213967      0.31529400      5.07359629
C           1.66298762     -0.81231643      4.89732872
C           1.75314348     -1.97347782      5.52085883
C           2.84233386     -2.34886895      6.47678219
C           3.80823172     -3.34610827      5.83461376
C           5.06019528     -3.54102742      6.67878546
C           4.75852892     -4.17907000      8.02610417
C           6.04274699     -4.43202776      8.80433037
C           5.78010092     -4.82673049     10.25477478
C           4.82875885     -6.02244830     10.39523997
C           5.30819331     -7.19289726      9.55688603
O           5.29284769     -7.12428623      8.33918229
O           5.74630605     -8.24019704     10.16912227
H           4.47536458     -0.30033772     10.43448050
H           5.94290256     -1.17733018     10.91260064
H           4.98184240     -1.73660581      9.53121669
H           7.03224657     -0.52721608      8.78833665
H           6.47490258      0.91641958      9.65287379
H           4.40457454      0.90686138      8.24859792
H           5.05769762     -0.47198369      7.35067239
H           7.01701158      0.90818633      6.68681556
H           6.32548971      2.28353695      7.56768317
H           5.74776617      2.56402017      5.24788422
H           4.27162661      2.07900366      6.10273315
H           6.07142458      0.23878872      4.42462950
H           4.01073125     -0.87651409      3.84155741
H           2.27500837      1.20460112      4.55757256
H           2.73394055      0.55821135      6.13486031
H           0.85703577     -0.63214678      4.19412538
H           1.02713182     -2.75826249      5.33082582
H           2.40872465     -2.79873979      7.37125621
H           3.40505994     -1.46259942      6.77154979
H           4.09722358     -2.96827012      4.85278214
H           3.30384624     -4.30502111      5.70601416
H           5.52976652     -2.56926649      6.84507749
H           5.76326830     -4.17876524      6.13993004
H           4.24299718     -5.12795475      7.86454119
H           4.11413115     -3.51877555      8.60785619
H           6.64049610     -3.51933306      8.79691091
H           6.60703223     -5.21782937      8.29893768
H           5.34212010     -3.97215266     10.77343592
H           6.72904381     -5.07227188     10.73414759
H           3.83904330     -5.72741527     10.04626815
H           4.76330756     -6.30159193     11.44676986
H           5.70083028     -8.16049180     11.12600663
          52
 Energy =    -62.36243918 a.u.  #Cluster:  123
C           2.40467099     -1.23500035      4.06190965
C           3.90699228     -1.02675518      3.95766568
C           4.63215212     -2.35007911      3.76987863
C           6.13982668     -2.15995861      3.75957946
C           6.86273274     -3.50152347      3.65782075
C           8.32283729     -3.34086620      3.94653263
C           8.99484739     -3.89747394      4.93747731
C           8.44129106     -4.83296976      5.97823277
C           8.55812586     -4.22416123      7.35048726
C           7.65643395     -3.42729171      7.89451346
C           6.37207848     -3.00584120      7.25131609
C           5.25089633     -2.78629946      8.25638441
C           3.99248160     -2.31740564      7.54098876
C           2.84333531     -2.03635379      8.50010577
C           2.33289111     -3.31018244      9.16344399
C           1.00583297     -3.10344958      9.88622421
C           1.10814002     -2.09260973     11.02774808
C           0.91404632     -0.67051753     10.52394390
O           0.59266661     -0.44887192      9.37159972
O           1.09797751      0.28052407     11.37947581
H           1.89402789     -0.28239017      4.19516096
H           2.18422907     -1.87822413      4.91388800
H           2.03534291     -1.71331347      3.15480534
H           4.27030422     -0.55519707      4.87252964
H           4.13061617     -0.37081018      3.11506614
H           4.31601856     -2.81298159      2.83334109
H           4.36986063     -3.01746750      4.59360744
H           6.43374802     -1.66740620      4.68829540
H           6.42647108     -1.52183381      2.92255626
H           6.72289560     -3.90172705      2.65128176
H           6.40844597     -4.19155255      4.36922333
H           8.83104946     -2.66542271      3.26345535
H          10.05142976     -3.68001873      5.06552845
H           9.00784296     -5.76571680      5.95012250
H           7.39584877     -5.05457919      5.76222215
H           9.47870861     -4.45035305      7.87835286
H           7.82083068     -3.00585431      8.88201532
H           6.04995839     -3.75278931      6.52422355
H           6.53576401     -2.06692356      6.71395893
H           5.55651091     -2.03201606      8.98381481
H           5.04999829     -3.71966222      8.78345935
H           3.68392121     -3.08391671      6.82716288
H           4.23062634     -1.40783654      6.98642268
H           2.01894644     -1.57535024      7.95170036
H           3.18700624     -1.33593313      9.26263137
H           3.07380589     -3.66998133      9.87889851
H           2.19766658     -4.07126537      8.39250159
H           0.66670186     -4.06440023     10.27316847
H           0.26698366     -2.73273231      9.16974780
H           2.07774840     -2.17818608     11.51935069
H           0.33410350     -2.29090409     11.77001431
H           1.34309965     -0.05057307     12.24827877
          52
 Energy =    -62.36243039 a.u.  #Cluster:  124
C           7.44564633     -0.98025014      8.39293897
C           6.15431877     -0.99854466      9.19712594
C           5.64540496      0.40850635      9.49136050
C           5.08837399      1.11023672      8.25703160
C           3.74310408      0.53245922      7.83172827
C           3.18966741      1.27470224      6.65264336
C           2.51147802      0.75645281      5.64657081
C           2.15343966     -0.69080282      5.47654785
C           2.59960046     -1.19699566      4.13486966
C           3.24296648     -2.32574120      3.90440191
C           3.66155087     -3.33523756      4.92812502
C           5.12208268     -3.73515346      4.74137940
C           5.55142801     -4.78127489      5.76256017
C           5.66666972     -4.19491286      7.16172864
C           6.07399581     -5.25604357      8.17265698
C           6.24310137     -4.68514334      9.57792046
C           4.92749229     -4.20460264     10.18713668
C           3.97922005     -5.36349742     10.44106753
O           4.25408261     -6.49526329     10.08990946
O           2.86795834     -5.08328211     11.04066013
H           7.28070456     -0.51542461      7.42153920
H           7.80148335     -1.99772435      8.23763628
H           8.20736678     -0.41512949      8.93033302
H           6.33724206     -1.51421125     10.14019872
H           5.39518312     -1.55484921      8.64687429
H           6.47093408      0.99541584      9.89782193
H           4.85424698      0.35688034     10.24128769
H           5.79665779      1.02137376      7.43222599
H           4.95234296      2.16961078      8.48016430
H           3.04870235      0.61914741      8.67239433
H           3.85578331     -0.52591892      7.59365270
H           3.38727312      2.34297769      6.67868493
H           2.16225327      1.39218626      4.83784555
H           1.06525253     -0.78873044      5.54032517
H           2.59458280     -1.28714394      6.27470736
H           2.34642645     -0.53475105      3.31169624
H           3.52067940     -2.59411895      2.88855227
H           3.04335780     -4.23131550      4.82627742
H           3.52047485     -2.93506168      5.93227105
H           5.75545661     -2.85273251      4.84868242
H           5.24723713     -4.13510675      3.73394553
H           6.52122428     -5.19246852      5.47714731
H           4.81965739     -5.59151590      5.77280373
H           4.70908844     -3.76197576      7.45236270
H           6.41545078     -3.40093111      7.15586002
H           7.02095244     -5.69340104      7.85172810
H           5.32074127     -6.04642268      8.19396719
H           6.94764629     -3.85344388      9.53266629
H           6.65703065     -5.45978765     10.22673331
H           4.44236243     -3.49323363      9.51867201
H           5.12488106     -3.69372432     11.12986866
H           2.79360462     -4.14906370     11.25563293
          52
 Energy =    -62.36223692 a.u.  #Cluster:  125
C           6.53811669     -0.79523223      9.71779082
C           6.89185291      0.33954058      8.77110444
C           5.80612076      0.54316849      7.72591372
C           6.15561347      1.68790591      6.78684854
C           5.05035404      1.92135300      5.76179276
C           4.91957386      0.75887970      4.82589943
C           3.78715375      0.18572179      4.46411656
C           2.41904682      0.59360273      4.94388905
C           1.44593454     -0.55106728      4.88703635
C           1.53916566     -1.63717065      5.63247409
C           2.62430349     -1.91707659      6.62589376
C           3.56146482     -3.00132684      6.09320842
C           4.64180895     -3.36938173      7.10105662
C           4.08209743     -4.12949138      8.29433324
C           5.19507625     -4.55353625      9.24087170
C           4.66965002     -5.28105887     10.47502703
C           4.08000971     -6.65196732     10.14849099
C           5.15448331     -7.61134840      9.66481140
O           6.29971693     -7.24150413      9.48691466
O           4.78872367     -8.83305122      9.44965230
H           5.59696748     -0.57586904     10.22188359
H           7.31917645     -0.93235662     10.46412313
H           6.42320468     -1.71942699      9.15129386
H           7.83307063      0.11447716      8.26692473
H           7.01502891      1.26308628      9.33935388
H           4.86078361      0.76356333      8.22599653
H           5.68503639     -0.37670137      7.15014641
H           7.08598079      1.45277319      6.26670762
H           6.30334442      2.59412508      7.37587874
H           5.28461151      2.81814742      5.18330474
H           4.10974338      2.08814061      6.28896357
H           5.86534524      0.39962817      4.42983038
H           3.78969599     -0.64367387      3.76394593
H           2.05448212      1.41531865      4.32425496
H           2.49518816      0.95856861      5.97116463
H           0.63997275     -0.45088046      4.16811930
H           0.81541425     -2.43978299      5.52506902
H           2.17868618     -2.26588889      7.55939529
H           3.20330965     -1.01581357      6.83045513
H           4.02879670     -2.63781194      5.17697083
H           2.97603925     -3.89221015      5.85831117
H           5.12862287     -2.45765723      7.45263892
H           5.39148442     -3.99469117      6.61295445
H           3.54845205     -5.00973346      7.93168814
H           3.37760403     -3.49711431      8.83732984
H           5.73079141     -3.65840333      9.56031244
H           5.89749371     -5.20089312      8.71179029
H           3.90914408     -4.65881353     10.94950409
H           5.49322960     -5.42376109     11.17772270
H           3.31610951     -6.55849637      9.37611793
H           3.60815078     -7.07077382     11.03778815
H           3.85593160     -8.97439399      9.63495140
          52
 Energy =    -62.36222283 a.u.  #Cluster:  126
C           8.73499380     -2.91292198      6.34838910
C           7.42303320     -2.44246688      6.95673242
C           7.39424757     -0.92615109      7.09196860
C           6.07584388     -0.43396764      7.67722647
C           4.93985431     -0.50897842      6.66437756
C           3.61247907     -0.25420668      7.31040647
C           2.57301999      0.31862575      6.73196731
C           2.56661219      0.84599423      5.32070312
C           2.93494602     -0.16786452      4.26376414
C           2.44964877     -1.39112336      4.15604230
C           1.51960921     -2.06726877      5.11568271
C           2.28075698     -3.16404015      5.85777982
C           1.46854839     -3.79275114      6.97952924
C           2.36347704     -4.66828393      7.85303846
C           3.22726481     -3.82090225      8.78017494
C           4.46016962     -4.56867344      9.25992769
C           5.32837879     -3.67980434     10.15024648
C           6.67580709     -4.34307904     10.34965229
O           7.62195269     -4.05552263      9.64011118
O           6.75812639     -5.25279042     11.26366547
H           8.86040844     -2.47569521      5.35758853
H           8.74737818     -3.99872799      6.26289130
H           9.56550365     -2.59710933      6.98020215
H           7.30497503     -2.89295518      7.94591603
H           6.59479814     -2.76831637      6.32603447
H           7.53889394     -0.47291957      6.10915189
H           8.21685279     -0.61887539      7.73993137
H           6.18359264      0.59763667      8.01447733
H           5.82198860     -1.05649725      8.53826620
H           4.93003752     -1.51178064      6.22848573
H           5.11528434      0.20851454      5.86057453
H           3.54339272     -0.60676775      8.33479824
H           1.65076328      0.45365384      7.28612296
H           3.27466644      1.67545834      5.25850562
H           1.57338819      1.23805677      5.09236177
H           3.63734357      0.19402181      3.52001942
H           2.78155561     -2.03210304      3.34407391
H           0.68419370     -2.51790549      4.57616029
H           1.12442824     -1.35301281      5.83848546
H           3.18334795     -2.72366443      6.28277143
H           2.58094142     -3.93712758      5.14885726
H           0.66194451     -4.38798248      6.55002163
H           1.03252618     -3.00394590      7.59548347
H           3.01320854     -5.25557722      7.20095283
H           1.75879694     -5.35315939      8.44803309
H           2.63780163     -3.49400723      9.63808517
H           3.56572270     -2.93366162      8.24246909
H           5.04248991     -4.87364690      8.38735913
H           4.16506351     -5.45988340      9.81589265
H           4.82212119     -3.51773620     11.10144040
H           5.47403036     -2.72182791      9.64806378
H           5.93084618     -5.37682847     11.73735168
          52
 Energy =    -62.36204004 a.u.  #Cluster:  127
C           7.23135674     -1.01163576      1.98681859
C           7.11193045     -0.47046538      3.40276419
C           6.87334518     -1.59459120      4.39904546
C           6.75641837     -1.06163941      5.81902129
C           6.50556641     -2.19569261      6.81403359
C           7.69631231     -3.10178043      6.89985566
C           7.81861045     -4.29357766      6.34412508
C           6.76491491     -5.02018467      5.55431653
C           6.42489691     -6.32326716      6.22400344
C           5.42721316     -6.50029092      7.07137544
C           4.47406416     -5.43250692      7.51359181
C           4.96411595     -4.78078379      8.80831491
C           4.12426070     -3.56527863      9.17681554
C           2.71965089     -3.94280158      9.62631965
C           1.89298480     -2.70494036      9.95728543
C           1.45745075     -1.96751049      8.69682382
C           0.75449566     -0.65629727      9.03353758
C           1.75502085      0.34772786      9.58324032
O           2.92767960      0.05128461      9.71823487
O           1.30190211      1.51761227      9.89342210
H           6.31315770     -1.53216703      1.71439045
H           8.06270561     -1.71458835      1.93191750
H           7.40375716     -0.20114631      1.28010528
H           6.28117553      0.23514915      3.45522102
H           8.03037611      0.05385579      3.67169065
H           7.70203929     -2.30323565      4.34347219
H           5.95216011     -2.11919572      4.13741201
H           5.93072687     -0.35044891      5.86416642
H           7.67957737     -0.54486836      6.08723548
H           5.62424513     -2.74934584      6.48999463
H           6.30672525     -1.77056705      7.79876262
H           8.53464433     -2.67693373      7.44505124
H           8.73947231     -4.85719977      6.46336021
H           7.15436625     -5.21990946      4.55388471
H           5.87383527     -4.39991687      5.46050755
H           7.10072026     -7.14129867      5.99586437
H           5.27894946     -7.46768954      7.54154595
H           3.48471992     -5.86044660      7.67822809
H           4.39636470     -4.65635564      6.75034374
H           5.99962845     -4.46825846      8.66721145
H           4.92339184     -5.50964088      9.61916239
H           4.06358007     -2.91053889      8.30634129
H           4.61402843     -3.01951160      9.98527925
H           2.79513390     -4.58056424     10.50853821
H           2.21679988     -4.50088293      8.83500763
H           2.49802664     -2.03520510     10.57207646
H           1.00454944     -2.99338821     10.52072690
H           0.79675551     -2.61356302      8.11725806
H           2.33802355     -1.73719155      8.09306909
H          -0.02454134     -0.83343145      9.77601961
H           0.28831423     -0.23720172      8.14150409
H           0.35803492      1.59971447      9.72958004
          52
 Energy =    -62.36193060 a.u.  #Cluster:  128
C           4.42774251     -1.03806343      1.76358245
C           5.80939165     -1.45537436      2.24636371
C           5.79252096     -1.89092838      3.70703090
C           5.56314104     -0.72169191      4.65469861
C           5.55734659     -1.19436546      6.10884954
C           6.91549386     -1.66662098      6.52979166
C           7.28540188     -2.92253031      6.70189252
C           6.39902862     -4.12502388      6.55636127
C           5.94641340     -4.61600992      7.90555735
C           4.78732256     -5.19622582      8.15243434
C           3.72172392     -5.45565283      7.12453396
C           2.77160247     -4.26090043      7.00477759
C           1.98482723     -4.05028430      8.29227954
C           1.25738897     -2.70010128      8.33625147
C           1.92606506     -1.74568815      9.32287019
C           3.29557033     -1.28433704      8.82882785
C           4.23776286     -0.95845008      9.98275659
C           4.69286158     -2.24505741     10.65568015
O           4.23995725     -3.32438421     10.32616368
O           5.58721513     -2.13346093     11.58239420
H           4.07232626     -0.17940421      2.33234482
H           3.72728990     -1.86274170      1.89747829
H           4.46212544     -0.76955772      0.70866124
H           6.50131275     -0.61914992      2.13410074
H           6.16162857     -2.28363791      1.63024252
H           6.74688648     -2.35937807      3.95324220
H           4.99896752     -2.62675402      3.85228331
H           4.60525557     -0.25240944      4.43048071
H           6.35611668      0.01588467      4.51871291
H           4.82520546     -1.99619988      6.20633163
H           5.25238972     -0.36711732      6.75128001
H           7.64008774     -0.86770285      6.66048743
H           8.29835562     -3.15137920      7.01890736
H           6.96093055     -4.92120210      6.06041763
H           5.53259473     -3.88656054      5.94081891
H           6.66168254     -4.45399157      8.70618516
H           4.53855466     -5.47936772      9.17036482
H           3.14186513     -6.33483916      7.40875307
H           4.18484064     -5.63696781      6.15408747
H           2.07919847     -4.42326031      6.17797290
H           3.36288737     -3.37105765      6.78640984
H           2.67769379     -4.09009191      9.13527246
H           1.27181692     -4.86797899      8.39990486
H           0.22120961     -2.84880871      8.64012586
H           1.26428445     -2.25066891      7.34208472
H           2.04861338     -2.27154554     10.27153020
H           1.28868816     -0.87707545      9.49070149
H           3.17805451     -0.42106437      8.17419919
H           3.75555678     -2.08705681      8.25257440
H           3.73262705     -0.32600372     10.71333513
H           5.11474162     -0.42543508      9.61450671
H           5.84711390     -1.21973472     11.73106630
          52
 Energy =    -62.36192500 a.u.  #Cluster:  129
C           4.47218751     -0.95611216      0.76360413
C           4.96651570     -2.15678712      1.55476907
C           4.70472977     -1.98074976      3.04271869
C           5.20967228     -3.17423754      3.83703000
C           4.96483543     -2.98295543      5.33252057
C           5.49065467     -4.14771240      6.11617174
C           6.73933601     -4.28704231      6.52405205
C           7.84270941     -3.28380412      6.32877097
C           8.50228536     -2.96245507      7.64235772
C           8.06244549     -2.05227360      8.49293004
C           6.83272883     -1.22039444      8.29200601
C           5.61549013     -1.90758543      8.91075353
C           4.34368321     -1.12261463      8.62972422
C           3.11802837     -1.79717475      9.23481111
C           2.77731255     -3.09925804      8.52003672
C           1.43038548     -3.67129385      8.94862060
C           1.39690010     -4.05097709     10.42853227
C           1.03165431     -2.85589345     11.29552901
O           0.69635606     -1.79708828     10.79847406
O           1.08766759     -3.02549199     12.57546815
H           4.66524699     -1.09274920     -0.29946263
H           4.98340475     -0.05594286      1.10501692
H           3.40034331     -0.83089409      0.91727352
H           6.03886675     -2.28166327      1.39557402
H           4.45736650     -3.05743041      1.20786132
H           3.63232605     -1.86449187      3.21130155
H           5.21045783     -1.07905631      3.39415407
H           6.28086465     -3.29122968      3.66368598
H           4.69798895     -4.07651012      3.49771255
H           3.89311588     -2.87252191      5.50305727
H           5.45978122     -2.06185272      5.64500662
H           4.77129229     -4.93950920      6.30005630
H           7.04268935     -5.17607234      7.06877468
H           7.43946161     -2.37416323      5.88255744
H           8.58250370     -3.70408671      5.64464397
H           9.37245258     -3.56358660      7.88427655
H           8.57050585     -1.89989552      9.44014589
H           6.64042580     -1.08108732      7.22657060
H           6.95658087     -0.24062259      8.75581511
H           5.75749679     -1.99346479      9.98933208
H           5.52508115     -2.90917534      8.48905051
H           4.20968030     -1.03769921      7.54961342
H           4.45143345     -0.11992861      9.04712272
H           2.25816764     -1.12745170      9.16616180
H           3.31749433     -1.99728187     10.28850398
H           3.55464889     -3.83853010      8.71875009
H           2.75132191     -2.90654238      7.44574959
H           1.21460551     -4.54802855      8.33794962
H           0.65458506     -2.92051180      8.77245678
H           2.36589035     -4.44489416     10.73685826
H           0.64791025     -4.82564995     10.59661829
H           1.36430013     -3.91450993     12.81558037
          52
 Energy =    -62.36187344 a.u.  #Cluster:  130
C           7.54159525     -0.69763049      7.59705934
C           6.76134751     -0.93866565      8.88082964
C           6.06074629      0.32043464      9.37998322
C           4.94659554      0.79963174      8.45530767
C           3.76897902     -0.17179219      8.41487290
C           2.66195363      0.38901306      7.57657578
C           2.10851331     -0.17388229      6.51876258
C           2.45633405     -1.51160343      5.94318567
C           2.86194671     -1.40555747      4.49601189
C           3.51810421     -2.33972634      3.83366616
C           3.98623312     -3.62962420      4.43359837
C           5.50896824     -3.64450889      4.59652387
C           5.92972370     -4.67822894      5.63567406
C           5.70664726     -4.14264311      7.04311334
C           5.84274707     -5.23016797      8.09694263
C           5.76746708     -4.67349755      9.51736232
C           4.46681915     -3.92459653      9.80357453
C           3.24699849     -4.81481510      9.64795964
O           3.34679528     -5.98868220      9.34654943
O           2.09740543     -4.25367301      9.84449342
H           8.26203674      0.10662374      7.74678856
H           6.86533572     -0.42081623      6.78913448
H           8.07328184     -1.60339228      7.30926294
H           7.45014819     -1.28654254      9.65151400
H           6.02268458     -1.72043433      8.70763511
H           6.80339342      1.11395756      9.48105977
H           5.62930445      0.12103690     10.36245249
H           5.33682332      0.93211248      7.44550631
H           4.58358200      1.76468488      8.81259386
H           3.41224578     -0.32631146      9.43634327
H           4.09906062     -1.13164209      8.01790664
H           2.33118997      1.37260784      7.89972162
H           1.32459973      0.34662147      5.97568141
H           1.58111955     -2.16527661      6.01240598
H           3.26151163     -1.97189127      6.51710417
H           2.55872428     -0.48620348      4.00491685
H           3.79078434     -2.19273967      2.79301549
H           3.69111331     -4.46781792      3.79988343
H           3.52600302     -3.76196245      5.41259822
H           5.84397780     -2.66103071      4.93142671
H           5.97151686     -3.86126103      3.63367818
H           6.98450117     -4.92721623      5.51330135
H           5.33848887     -5.58516205      5.49617636
H           4.70849510     -3.70659321      7.09997944
H           6.43417181     -3.35494833      7.24347402
H           6.80480187     -5.72798069      7.96505368
H           5.05070518     -5.96869138      7.95630186
H           6.60734035     -3.99385176      9.66992238
H           5.85437360     -5.50110041     10.22401140
H           4.36971137     -3.07534672      9.12728357
H           4.48956307     -3.53467058     10.82176164
H           2.17994943     -3.32375879     10.07531881
          52
 Energy =    -62.36185650 a.u.  #Cluster:  131
C           7.95223603     -1.37997665      1.77998474
C           7.41757540     -0.67969861      3.01928738
C           6.99814376     -1.68790766      4.07800817
C           6.47722939     -0.99520356      5.32826898
C           6.04922104     -2.01347757      6.38653606
C           7.23162697     -2.78670871      6.88532214
C           7.56875107     -4.01469906      6.53406733
C           6.80385577     -4.91623429      5.60459098
C           6.50814237     -6.23169431      6.27354102
C           5.51081029     -6.42781580      7.11721627
C           4.53559558     -5.37594969      7.54846673
C           4.97405467     -4.75340814      8.87570293
C           4.08922717     -3.57701359      9.26621314
C           2.67974508     -4.01617829      9.63891097
C           1.82363013     -2.83941045     10.09285116
C           1.46281439     -1.92038278      8.93221596
C           0.62380599     -0.73536971      9.40062567
C           1.46435903      0.20661898     10.24720190
O           2.63166668     -0.03965870     10.48709927
O           0.88162180      1.27083232     10.69282712
H           7.18068050     -2.02697306      1.36244252
H           8.81497770     -1.99030796      2.04737740
H           8.25140045     -0.65183845      1.02740833
H           6.55670201     -0.06583740      2.74944004
H           8.19081099     -0.03056826      3.43347899
H           7.85707573     -2.30971889      4.33782523
H           6.21507143     -2.33215439      3.67314406
H           5.62394957     -0.37147009      5.05923094
H           7.26186547     -0.35769032      5.73957524
H           5.31269787     -2.68390975      5.94265708
H           5.58285509     -1.48781881      7.22099407
H           7.87208226     -2.22830851      7.56222833
H           8.46459443     -4.47093641      6.94513400
H           7.40540323     -5.08988380      4.71055516
H           5.87329251     -4.43391518      5.30305425
H           7.20214000     -7.03484934      6.04960073
H           5.37842404     -7.39527061      7.59182372
H           3.54521110     -5.81599755      7.67071468
H           4.47607609     -4.58499809      6.79915345
H           6.00405577     -4.40828474      8.77391700
H           4.93324187     -5.51172943      9.65922972
H           4.04571619     -2.88011371      8.42804112
H           4.53148867     -3.06299198     10.12162666
H           2.74600408     -4.74870005     10.44529390
H           2.20203152     -4.48769144      8.77871010
H           2.37744214     -2.26856702     10.84127280
H           0.90270868     -3.21158705     10.54443923
H           0.91670017     -2.49424097      8.18212845
H           2.37847479     -1.53482795      8.47919009
H          -0.22173213     -1.09151456      9.99052628
H           0.23490824     -0.18618797      8.54276278
H          -0.03840604      1.32656218     10.41919378
          52
 Energy =    -62.36153115 a.u.  #Cluster:  132
C           4.29582356     -0.75330799      1.76904147
C           5.60294943     -1.49682728      1.54416230
C           6.29400176     -1.79601801      2.86562683
C           7.59800315     -2.54978828      2.65147003
C           8.30668874     -2.82482029      3.97963454
C           7.49257814     -3.75193463      4.83003883
C           6.72902329     -3.39755005      5.84696872
C           6.55745995     -1.99947854      6.37715353
C           6.48608710     -2.00375393      7.87693108
C           5.37255151     -2.10883040      8.57824794
C           3.98939118     -2.24653857      8.02147505
C           3.46979173     -3.66013783      8.27960529
C           2.01712109     -3.85265822      7.85636825
C           1.02632722     -2.96810204      8.61289696
C           1.08225288     -3.17147610     10.13222863
C           1.47697880     -1.89266574     10.86540811
C           2.00008683     -2.18830935     12.26739644
C           3.41470033     -2.74319434     12.18096116
O           3.99048178     -2.81868646     11.11270407
O           3.96666579     -3.11701885     13.28751446
H           4.49273753      0.18720936      2.28375546
H           3.63158661     -1.35839823      2.38630552
H           3.80578388     -0.54327284      0.81938709
H           6.26559042     -0.89172751      0.92327435
H           5.40392570     -2.43647550      1.02628472
H           5.62578757     -2.39337471      3.48876071
H           6.50329764     -0.85784796      3.38343204
H           8.25003412     -1.95506738      2.01051639
H           7.38727718     -3.49787538      2.15348957
H           8.45914494     -1.87380614      4.49233117
H           9.27929167     -3.27544736      3.77637399
H           7.52401824     -4.79101831      4.51500788
H           6.14674415     -4.14240330      6.38167241
H           5.63063217     -1.59058953      5.96695782
H           7.38265498     -1.37002372      6.04253454
H           7.44586121     -1.95577905      8.38162865
H           5.40430857     -2.15339876      9.66429133
H           3.97366775     -2.04588957      6.94981442
H           3.33253371     -1.53141208      8.52050834
H           3.57246650     -3.86971026      9.34589828
H           4.09307371     -4.36721018      7.73062766
H           1.74749154     -4.89686111      8.02408940
H           1.93235998     -3.63883796      6.78940770
H           0.02506934     -3.18907290      8.24321592
H           1.24057504     -1.92264730      8.38782334
H           1.81461956     -3.94653314     10.36200752
H           0.11528857     -3.50863949     10.50533419
H           0.62021543     -1.22008713     10.90678957
H           2.27744517     -1.39885319     10.30873760
H           1.35158138     -2.90937578     12.76544811
H           2.02197047     -1.27642048     12.86477264
H           3.38766039     -2.99351353     14.04514438
          52
 Energy =    -62.36138553 a.u.  #Cluster:  133
C           7.94180262     -1.67040856      7.23912364
C           7.04211360     -0.50861400      6.84554228
C           6.49355672      0.18953023      8.08132221
C           5.73253356      1.47235220      7.76220901
C           4.46118386      1.22903651      6.95428872
C           4.70944942      1.12036358      5.47536481
C           3.77916727      0.86833633      4.57384236
C           2.32672958      0.62720122      4.88322793
C           1.84987693     -0.63826707      4.22706047
C           1.83288494     -1.82714044      4.80188076
C           2.30381943     -2.12131105      6.19247287
C           3.73080642     -2.66976604      6.16147386
C           4.29841718     -2.84084159      7.56257034
C           3.61441333     -3.95000727      8.34601426
C           4.26836852     -4.11760068      9.71005336
C           3.61250877     -5.21061290     10.54929436
C           3.81517929     -6.60987538      9.97036851
C           5.27845602     -7.01859025      9.99823546
O           6.14928862     -6.24254707     10.34293323
O           5.54820127     -8.22956569      9.63159924
H           8.78261192     -1.30302626      7.82735425
H           8.32066745     -2.17793907      6.35337258
H           7.37634770     -2.38196386      7.84079736
H           6.21755661     -0.88572057      6.24028560
H           7.61397333      0.20739303      6.25331089
H           7.32981147      0.43462441      8.73904520
H           5.82851603     -0.49518868      8.61080695
H           6.38680600      2.14507560      7.20467187
H           5.46539472      1.95183831      8.70446233
H           3.76776557      2.05552204      7.12612469
H           3.98065924      0.31634221      7.31534385
H           5.73307414      1.30182248      5.16489651
H           4.02710245      0.81597929      3.51822656
H           1.74352426      1.46946871      4.50336998
H           2.18847167      0.56891087      5.96276286
H           1.53961876     -0.52644792      3.19307055
H           1.50578826     -2.69796992      4.24168475
H           1.64777412     -2.85678807      6.65973475
H           2.29900753     -1.21275672      6.79710002
H           4.35957059     -1.97100681      5.60708477
H           3.73679170     -3.63236988      5.64778056
H           4.19033574     -1.89935755      8.10481464
H           5.36159145     -3.07546156      7.49188404
H           3.68931555     -4.87991601      7.77999076
H           2.55870402     -3.71119199      8.48380958
H           4.19427315     -3.16889886     10.24435286
H           5.32645322     -4.35269994      9.57662659
H           2.54458663     -4.99916163     10.62475230
H           4.04404873     -5.19069301     11.55214466
H           3.46024268     -6.64492452      8.93995505
H           3.23725950     -7.33207742     10.54781258
H           4.75968244     -8.72314881      9.38849909
          52
 Energy =    -62.36125300 a.u.  #Cluster:  134
C           8.73279088     -3.40331988      6.52129697
C           7.34863033     -3.11873035      7.08197704
C           6.37231670     -2.65448796      6.00966698
C           6.73691327     -1.28990488      5.44208408
C           5.69164574     -0.81586886      4.43259322
C           4.38412412     -0.53401778      5.10657774
C           3.22067535     -1.07719644      4.79831711
C           3.01159479     -2.09416378      3.70336984
C           3.58671564     -3.44323269      4.06262751
C           3.14803127     -4.19532752      5.05570227
C           2.06474423     -3.79512920      6.00944558
C           2.68887088     -3.21357638      7.27828353
C           1.63438836     -2.68324034      8.23861327
C           2.21501111     -1.75948933      9.31063154
C           2.69433811     -2.47716632     10.57045328
C           3.85022633     -3.45594251     10.36732986
C           5.09032632     -2.82243478      9.74095788
C           5.67682114     -1.73229555     10.61987119
O           5.16479960     -1.42614389     11.67983718
O           6.74253134     -1.14689271     10.17791128
H           9.16837158     -2.49425664      6.10837239
H           8.66082203     -4.15022339      5.73041343
H           9.38717437     -3.78013546      7.30605213
H           7.41844946     -2.34352011      7.85055834
H           6.96034868     -4.02457314      7.54852214
H           5.37436447     -2.59445203      6.44650817
H           6.35308111     -3.38625975      5.19969370
H           7.70780512     -1.34601912      4.94998976
H           6.79772162     -0.56712168      6.25794804
H           5.56911653     -1.57990133      3.66448771
H           6.05216428      0.10120500      3.96079578
H           4.45220289      0.18277270      5.92001418
H           2.33153148     -0.80995163      5.35852828
H           3.48229171     -1.73936403      2.78595918
H           1.94048571     -2.20202691      3.52384148
H           4.41342685     -3.77843037      3.44639261
H           3.62027843     -5.14837548      5.27218511
H           1.45612321     -4.65930217      6.28030500
H           1.42202138     -3.03859066      5.55584006
H           3.34293827     -2.38851260      6.99257573
H           3.29251869     -3.98448666      7.75452286
H           1.11205678     -3.51502533      8.71372516
H           0.91222452     -2.11578767      7.64824296
H           1.44205666     -1.05321845      9.61689435
H           3.03604112     -1.18955458      8.87314079
H           1.85207518     -3.02678079     10.99421232
H           3.01030277     -1.72354302     11.29535268
H           3.51619770     -4.28723251      9.74629292
H           4.12941989     -3.85385279     11.34525435
H           4.85067343     -2.39734278      8.76711770
H           5.84765674     -3.59125258      9.58697338
H           7.02713911     -1.50205978      9.32735288
          52
 Energy =    -62.36122354 a.u.  #Cluster:  135
C           6.78625791     -0.45845054      7.93886370
C           6.10600079     -1.43463734      6.99201644
C           6.63211536     -1.31428637      5.56581277
C           8.01042877     -1.94805695      5.39526340
C           7.93794751     -3.47811318      5.39200985
C           7.28348021     -3.98899321      4.14307929
C           6.04958127     -4.44768229      4.03659125
C           5.06149282     -4.56841021      5.16314217
C           4.95117994     -5.98958769      5.64005355
C           5.20103112     -6.41323240      6.86561193
C           5.61949821     -5.56038175      8.02573396
C           4.43318196     -5.22456967      8.93121191
C           3.38597542     -4.39890587      8.19614390
C           2.29034627     -3.91706351      9.14306586
C           2.74260870     -2.71674102      9.96989521
C           2.69245270     -1.42956013      9.15959708
C           3.30667118     -0.26278826      9.92613016
C           3.20528350      1.03193804      9.13796528
O           2.63959907      2.00555186      9.60002608
O           3.73832998      1.04860082      7.96095863
H           6.60346578      0.56292207      7.60530986
H           7.86059153     -0.63796055      7.96016875
H           6.38812350     -0.57596190      8.94555165
H           5.03393608     -1.23041961      6.99503883
H           6.25346527     -2.45249165      7.35238728
H           6.68628152     -0.25607193      5.30555364
H           5.93802970     -1.80239738      4.88020040
H           8.65983667     -1.62077795      6.20754348
H           8.44526965     -1.62077425      4.44989817
H           7.39145500     -3.81000314      6.27379904
H           8.95255276     -3.87546624      5.44666414
H           7.91341048     -3.93183767      3.25963250
H           5.68309038     -4.80608760      3.07945896
H           4.08090141     -4.24745156      4.80428381
H           5.34867254     -3.91951331      5.98671492
H           4.64963089     -6.69187057      4.86840095
H           5.07049319     -7.46409599      7.10807804
H           6.05195145     -4.62395112      7.67246723
H           6.37216776     -6.09121768      8.61035061
H           4.79678461     -4.66004944      9.79058284
H           3.97674544     -6.14926632      9.28854664
H           2.94496428     -5.00613105      7.40473047
H           3.87118771     -3.53576196      7.73746704
H           2.02059210     -4.74156019      9.80461110
H           1.40807856     -3.62757126      8.57029802
H           3.76474826     -2.88022392     10.31632762
H           2.09813480     -2.60461273     10.84283940
H           1.65372333     -1.19976324      8.91462159
H           3.24735424     -1.56544929      8.22949388
H           4.35765045     -0.48765462     10.11368959
H           2.79198592     -0.13990813     10.88009697
H           4.13756189      0.20666498      7.72209972
          52
 Energy =    -62.36119925 a.u.  #Cluster:  136
C           7.71560695      0.77963260      4.39769858
C           8.21306283      0.13344348      5.68261663
C           7.38578249     -1.08948279      6.06022413
C           7.61704086     -2.26329700      5.11935003
C           6.78518335     -3.46236219      5.55491395
C           7.00669909     -4.65537114      4.67845461
C           6.07825415     -5.48930625      4.24725671
C           4.61312300     -5.40851089      4.58280517
C           4.29906084     -6.30544326      5.74963918
C           3.93791434     -5.91580368      6.95830247
C           3.77964870     -4.50294011      7.42800149
C           4.81831588     -4.17771729      8.50298990
C           4.93122866     -2.67781094      8.73940390
C           3.64068838     -2.08027876      9.27862849
C           3.80943842     -0.59653464      9.57690065
C           2.48535173      0.09868839      9.87515167
C           1.78460989     -0.47219823     11.10732433
C           0.93948055     -1.68521806     10.74882571
O           0.78031783     -2.02263257      9.59069075
O           0.39787852     -2.32813578     11.73042190
H           8.30241248      1.66875041      4.17136710
H           6.66929992      1.06422565      4.51075004
H           7.80212147      0.08131880      3.56593681
H           8.15706742      0.86583020      6.48894467
H           9.25436435     -0.16795997      5.55809549
H           6.32630032     -0.82589992      6.04543991
H           7.64682763     -1.40498601      7.07182942
H           8.67474593     -2.53294799      5.13047677
H           7.33822055     -1.98411159      4.10249809
H           5.73290439     -3.17678171      5.55538736
H           7.06485524     -3.71710457      6.58102420
H           8.04616171     -4.80871749      4.40142239
H           6.35421159     -6.34190642      3.63473058
H           4.03151779     -5.73630113      3.71888175
H           4.34090283     -4.37959355      4.81623749
H           4.41739685     -7.36311259      5.53267416
H           3.75812080     -6.65685458      7.73252743
H           2.77898274     -4.36395323      7.84098558
H           3.91130830     -3.80862232      6.59807995
H           5.78803101     -4.55621130      8.17635746
H           4.54453711     -4.67500923      9.43452795
H           5.18304588     -2.18992513      7.79598346
H           5.73333463     -2.48358139      9.45377946
H           3.35941765     -2.61169700     10.18900050
H           2.84231058     -2.20252928      8.54428720
H           4.26820765     -0.12146579      8.70758700
H           4.48055058     -0.47797859     10.42967499
H           1.81927304     -0.02890757      9.01684600
H           2.67383776      1.16292052     10.01672365
H           1.12216297      0.27889910     11.53904866
H           2.52027260     -0.74894760     11.86320254
H           0.61071986     -1.94043969     12.58419068
          52
 Energy =    -62.36119923 a.u.  #Cluster:  137
C           7.52088644      0.78642500      4.40299184
C           8.06459127      0.16550114      5.68163110
C           7.27417685     -1.07085448      6.09301341
C           7.50711409     -2.24927832      5.15837692
C           6.71318486     -3.46169219      5.62675772
C           6.94043154     -4.65846603      4.75694132
C           6.02006850     -5.51319837      4.34984488
C           4.56002475     -5.45703115      4.71150113
C           4.28448895     -6.35007701      5.89096511
C           3.93686362     -5.95740256      7.10259678
C           3.75819220     -4.54405182      7.56342772
C           4.80993600     -4.18823918      8.61568658
C           4.89133455     -2.68483078      8.84272986
C           3.59811231     -2.11606082      9.40621052
C           3.73737547     -0.62763767      9.69635954
C           2.40331441      0.03709573     10.01872683
C           1.74062034     -0.54574400     11.26627447
C           0.91677237     -1.77907689     10.92819896
O           0.74354914     -2.12475252      9.77455877
O           0.40854728     -2.43014487     11.92226260
H           7.60243380      0.08125778      3.57653335
H           8.08169620      1.68587328      4.15288169
H           6.47157079      1.04885037      4.53929794
H           8.01285131      0.90541715      6.48133614
H           9.10879722     -0.11459056      5.53387388
H           6.20914059     -0.83046928      6.10288690
H           7.56792845     -1.36971877      7.10069421
H           8.57042410     -2.49576541      5.14508686
H           7.19650229     -1.98695224      4.14627519
H           5.65510926     -3.19957709      5.65028016
H           7.02366459     -3.69922221      6.64812584
H           7.97729976     -4.79489824      4.46186686
H           6.30086527     -6.36586675      3.73960610
H           3.96911554     -5.80282936      3.86101265
H           4.27263698     -4.43153630      4.94173379
H           4.42035686     -7.40696569      5.68057729
H           3.78577384     -6.69523768      7.88597192
H           2.76285363     -4.42227297      7.99433770
H           3.85963734     -3.85430166      6.72548599
H           5.78175888     -4.54521440      8.27157523
H           4.56666585     -4.68697581      9.55490169
H           5.11180684     -2.19570520      7.89208540
H           5.70303236     -2.46779089      9.53949098
H           3.34818627     -2.65068016     10.32383463
H           2.78807168     -2.25999407      8.68876472
H           4.16740972     -0.14496170      8.81661137
H           4.42221898     -0.49010439     10.53525257
H           1.72364689     -0.10922025      9.17417454
H           2.56929453      1.10597661     10.15326190
H           1.06974923      0.19130659     11.70906445
H           2.49738527     -0.80300999     12.00806726
H           0.62856506     -2.03409770     12.77036010
          52
 Energy =    -62.36119791 a.u.  #Cluster:  138
C           3.07631779     -0.29020796      2.55248789
C           4.46259177     -0.90670994      2.44942054
C           4.78281745     -1.73913471      3.68084375
C           6.17017696     -2.35613282      3.59826598
C           6.46824145     -3.16908817      4.85083500
C           7.82109426     -3.80787395      4.80638393
C           8.67512788     -3.89399319      5.80964828
C           8.43162416     -3.38645980      7.20571292
C           7.93789430     -4.50536699      8.08256525
C           6.72397796     -4.62303163      8.58813904
C           5.57884611     -3.67936903      8.38855120
C           4.44702472     -4.36971019      7.62633173
C           3.42617764     -3.37054209      7.09325801
C           2.77622885     -2.53200044      8.18797716
C           1.99561053     -3.38631804      9.17940908
C           1.11513896     -2.54984871     10.10201153
C           1.92649343     -1.60089547     10.98319287
C           2.21758545     -0.29252473     10.26408764
O           1.71522657     -0.04173761      9.18457916
O           3.01280644      0.53448558     10.85882822
H           2.85477764      0.30417647      1.66734605
H           3.02373317      0.34986039      3.43323184
H           2.33014958     -1.07911371      2.64722967
H           5.20753095     -0.11541704      2.35086176
H           4.51414420     -1.54398377      1.56512181
H           4.04402608     -2.53672865      3.78123985
H           4.72820271     -1.10644807      4.56909258
H           6.91121227     -1.56164608      3.49382280
H           6.22684229     -3.00414846      2.72180422
H           5.70756042     -3.94962691      4.93979932
H           6.38150154     -2.51632942      5.71988763
H           8.07676901     -4.22708076      3.83705803
H           9.62405804     -4.40363151      5.67492650
H           7.70399557     -2.57569618      7.18633674
H           9.36938959     -3.00483979      7.61436066
H           8.68000370     -5.27662765      8.26736201
H           6.47301830     -5.49163595      9.19104105
H           5.89767836     -2.80451797      7.82210355
H           5.20594376     -3.34873640      9.35963477
H           3.95774565     -5.09025407      8.28193247
H           4.87483979     -4.90868643      6.77962861
H           2.64678045     -3.91381384      6.55589339
H           3.93191218     -2.70465832      6.39218853
H           2.09084745     -1.81644765      7.72866714
H           3.54875271     -1.97249933      8.71550549
H           2.69234374     -3.96507081      9.78762096
H           1.36396981     -4.07892029      8.62002546
H           0.52676358     -3.22175440     10.72691390
H           0.43362541     -1.94906405      9.49277989
H           2.86420204     -2.07308928     11.27809916
H           1.36675667     -1.36504621     11.88897709
H           3.32540736      0.19858683     11.70382006
          52
 Energy =    -62.36097956 a.u.  #Cluster:  139
C           5.98143521     -0.78963748      2.57416618
C           6.89697506     -1.77978412      3.27937147
C           7.61110296     -1.14859996      4.47116591
C           6.67930176     -0.82563279      5.63708898
C           6.13761550     -2.08890167      6.30796383
C           7.25433872     -2.90970537      6.87486075
C           7.60041436     -4.13166699      6.51257064
C           6.91206188     -4.98748078      5.48544118
C           6.52092388     -6.31537199      6.07873305
C           5.48853381     -6.48954571      6.88400179
C           4.57102193     -5.39996958      7.34636864
C           4.95547339     -4.94400376      8.75557198
C           4.15625658     -3.72370486      9.19190073
C           2.68577647     -4.04311319      9.42256349
C           1.90440597     -2.79938351      9.83200788
C           1.68468853     -1.86032738      8.65213560
C           0.99361057     -0.57166886      9.08661564
C           1.94014633      0.27679459      9.92031330
O           3.06502118     -0.11026130     10.17711412
O           1.49452231      1.41687296     10.33499953
H           6.55778559      0.07618670      2.24754238
H           5.19514634     -0.45422563      3.24964686
H           5.52028407     -1.25701745      1.70534015
H           7.64585319     -2.13251951      2.56927325
H           6.31225078     -2.63721724      3.61307219
H           8.09059140     -0.22731513      4.13624553
H           8.38625736     -1.83000030      4.82635439
H           5.84512695     -0.21990612      5.28324607
H           7.23413642     -0.25151277      6.38055477
H           5.56495534     -2.66778128      5.58446219
H           5.46463410     -1.79391597      7.11559304
H           7.83203850     -2.39206775      7.63601837
H           8.44503850     -4.61959567      6.99048143
H           7.59297467     -5.15019720      4.64815500
H           6.02425963     -4.47599639      5.11155134
H           7.16764055     -7.14940926      5.82840679
H           5.27916103     -7.46901269      7.30313069
H           3.54218700     -5.76241296      7.35764666
H           4.63134316     -4.54264090      6.67460877
H           6.01788877     -4.69553320      8.76157410
H           4.78160183     -5.76095230      9.45763156
H           4.24400774     -2.95702224      8.42034483
H           4.57675741     -3.32957486     10.11882631
H           2.61145887     -4.79777810     10.20729815
H           2.24861896     -4.44732632      8.50822637
H           2.46436261     -2.27333030     10.60811058
H           0.93319601     -3.09054459     10.23464450
H           1.08748225     -2.37304933      7.89687083
H           2.65096793     -1.59952059      8.21505422
H           0.10684438     -0.80778141      9.67613552
H           0.68139693      0.00239667      8.21387954
H           0.59092064      1.58200714     10.05090121
          52
 Energy =    -62.36081328 a.u.  #Cluster:  140
C           5.23200995     -0.82614021      0.68064135
C           5.36569947     -2.14377814      1.43029944
C           6.00638384     -1.95691881      2.80108283
C           7.48537636     -1.60833533      2.70181837
C           8.10716641     -1.44313017      4.09040284
C           8.10934615     -2.74607758      4.83013435
C           7.27515011     -3.09196080      5.79375372
C           6.18384464     -2.23241610      6.36380214
C           6.11655958     -2.35955679      7.85686270
C           5.03409892     -2.61612984      8.56690269
C           3.64863351     -2.83827257      8.04368632
C           3.06574935     -4.12708355      8.61790234
C           1.57201549     -4.27806972      8.35023379
C           0.70832594     -3.23647156      9.06114732
C           0.91029440     -3.23292028     10.58127504
C           1.63092293     -1.97439948     11.05447247
C           2.18290107     -2.13752021     12.46720085
C           3.46479243     -2.95704913     12.43286663
O           3.99317181     -3.24998128     11.37810908
O           3.96335789     -3.31112231     13.57133858
H           6.21503776     -0.39099890      0.50344473
H           4.63869443     -0.12664406      1.26995568
H           4.74175216     -0.98650276     -0.27858977
H           5.97627328     -2.83380152      0.84569574
H           4.37328278     -2.57853063      1.55613578
H           5.90126310     -2.88066087      3.37229796
H           5.48581943     -1.15918618      3.33469996
H           7.60489297     -0.67765255      2.14718025
H           8.00768037     -2.40432955      2.16794806
H           7.53243641     -0.69487665      4.63850595
H           9.13263154     -1.08730975      3.97902850
H           8.85180037     -3.45658812      4.47788098
H           7.34469797     -4.07615035      6.24763891
H           5.23045222     -2.53202180      5.92250379
H           6.36054335     -1.18771992      6.09661265
H           7.07242616     -2.22345957      8.35467923
H           5.09530249     -2.69374086      9.65035273
H           3.64091359     -2.88527101      6.95410422
H           3.02137592     -1.99920261      8.35418175
H           3.24246902     -4.13387982      9.69505804
H           3.59153075     -4.97720367      8.18182231
H           1.26161187     -5.26874730      8.68709032
H           1.39790549     -4.20632560      7.27510817
H          -0.33464513     -3.44713339      8.82465365
H           0.94583848     -2.24535665      8.67234242
H           1.49550515     -4.10831592     10.86729573
H          -0.05223652     -3.29438822     11.08944777
H           0.94298794     -1.13012369     11.00521334
H           2.47263414     -1.77293896     10.38815164
H           1.44624447     -2.62854404     13.10336663
H           2.41236805     -1.16254618     12.89838676
H           3.43565244     -3.00306354     14.31371886
          52
 Energy =    -62.36080221 a.u.  #Cluster:  141
C           4.44959820     -0.33099954      5.55973145
C           5.02076300     -1.60095627      4.94715575
C           6.54284358     -1.55067707      4.86243419
C           7.21858411     -1.73057449      6.22039661
C           7.17501232     -3.17828912      6.69466132
C           8.03129531     -4.07477087      5.84422201
C           8.14155414     -5.38005170      6.00288228
C           7.39767859     -6.16903291      7.04444803
C           6.24194471     -6.89624989      6.41433020
C           4.96486121     -6.72588561      6.70025366
C           4.39473592     -5.77397588      7.70477156
C           3.41193443     -4.81041670      7.04764116
C           2.89170132     -3.79745576      8.05355693
C           1.90140259     -2.83744518      7.41181686
C           1.37283937     -1.81005688      8.40590818
C           2.43726369     -0.79453920      8.79199003
C           1.89769921      0.24738534      9.76871398
C           3.01164836      1.20877180     10.13897077
O           3.00973630      2.36213004      9.75205389
O           3.97866229      0.72718294     10.85034199
H           4.73266680      0.53121085      4.95580081
H           4.83419455     -0.19377653      6.56973877
H           3.36342565     -0.39175401      5.60520039
H           4.60998191     -1.72264378      3.94442746
H           4.71587871     -2.45894788      5.54798472
H           6.83168289     -0.58585909      4.44243818
H           6.89559948     -2.33488076      4.19125348
H           6.72464839     -1.09372817      6.95486134
H           8.26224254     -1.42287593      6.14249384
H           6.14247893     -3.53299535      6.67534292
H           7.51954879     -3.23020012      7.73004780
H           8.59274314     -3.56949014      5.06450732
H           8.76914527     -5.97028526      5.34309664
H           7.04434904     -5.50145045      7.82959442
H           8.07477931     -6.90351059      7.48693310
H           6.53880254     -7.60316148      5.64491408
H           4.21068835     -7.29847259      6.16685543
H           5.18732872     -5.19213883      8.17633088
H           3.86534089     -6.33207778      8.48101300
H           2.57566980     -5.37197383      6.62777392
H           3.91740036     -4.27776024      6.23986091
H           3.73848346     -3.23875697      8.45552163
H           2.40207018     -4.32460569      8.87488194
H           1.06873848     -3.41591778      7.00803990
H           2.39301698     -2.31614162      6.58835563
H           1.02605799     -2.32618106      9.30328144
H           0.52950271     -1.27668787      7.96394435
H           2.79107876     -0.29146079      7.89081796
H           3.28015173     -1.30410029      9.26245695
H           1.53288959     -0.26441326     10.65970292
H           1.07825997      0.79570475      9.30294122
H           3.84572826     -0.19741720     11.07808298
          52
 Energy =    -62.36077398 a.u.  #Cluster:  142
C           5.53530445     -1.94347235      0.34314716
C           6.80556240     -2.15670194      1.15375416
C           6.52399521     -2.20782190      2.65107127
C           6.11236837     -0.85145555      3.20730825
C           5.88837625     -0.92714041      4.71875603
C           7.17774288     -1.19200754      5.43569140
C           7.54468865     -2.33168293      5.99253955
C           6.71174927     -3.58101194      6.06871258
C           6.18596147     -3.76395282      7.46538644
C           4.91539224     -3.82164396      7.81777547
C           3.73485426     -3.72909657      6.89550437
C           2.59313190     -2.92768001      7.51884711
C           1.85069396     -3.74243590      8.57040584
C           0.83890112     -2.91025665      9.36892708
C           1.32501896     -2.65567000     10.79341513
C           2.49693984     -1.67678750     10.83925765
C           3.39547305     -1.94156403     12.04283614
C           4.19488948     -3.21566319     11.81104585
O           4.07959850     -3.85014686     10.78055068
O           5.00090204     -3.57992393     12.75343738
H           5.07946306     -0.98779549      0.59989973
H           4.82406789     -2.74144408      0.55756113
H           5.76294756     -1.94809823     -0.72191434
H           7.50481652     -1.34342325      0.95295374
H           7.26634379     -3.09577991      0.84462290
H           7.42285793     -2.54140029      3.17248015
H           5.72629365     -2.92840465      2.84221850
H           5.19066039     -0.52333178      2.72693548
H           6.89695397     -0.12222080      2.99711122
H           5.16464051     -1.71692136      4.92136761
H           5.47532142      0.02179019      5.06469270
H           7.86156487     -0.34758990      5.43685894
H           8.50655747     -2.40971755      6.49041716
H           7.34039438     -4.43743685      5.81357003
H           5.88999512     -3.53447766      5.35628984
H           6.96378739     -3.82889922      8.22111156
H           4.66151489     -3.94790865      8.86736207
H           3.36809381     -4.73416077      6.67007164
H           4.03517727     -3.25860307      5.95881419
H           1.88882450     -2.63040071      6.74100177
H           3.00337829     -2.02589136      7.97499742
H           2.57615194     -4.16399195      9.26866572
H           1.34495679     -4.56767600      8.06793458
H          -0.11339293     -3.43868186      9.41552503
H           0.67799514     -1.95461611      8.86776461
H           1.64167203     -3.61057615     11.21717124
H           0.50666827     -2.26660452     11.40007758
H           2.12000125     -0.65437451     10.85663138
H           3.10597243     -1.80257287      9.94256903
H           2.79295347     -2.04723826     12.94536066
H           4.09034787     -1.11410396     12.18853029
H           4.98124446     -2.97895445     13.50372286
          52
 Energy =    -62.36076852 a.u.  #Cluster:  143
C           3.92101337     -0.87979522      1.94215515
C           4.97777312     -1.97424260      1.98029897
C           5.63705041     -2.08038350      3.35089525
C           6.54634418     -0.89525413      3.64588528
C           7.17501599     -1.01410865      5.03634167
C           8.12627876     -2.17111467      5.10208328
C           7.85924841     -3.36541613      5.59939192
C           6.56336901     -3.78711686      6.21622096
C           6.74825123     -4.47344657      7.54103317
C           5.76362445     -5.05618390      8.19991567
C           4.34432797     -5.07121901      7.71605941
C           3.61328200     -3.79605644      8.13744445
C           2.17072246     -3.81309353      7.65604211
C           1.42444659     -2.51893497      7.96762955
C           1.33222916     -2.24708422      9.47166989
C           2.38581648     -1.24921718      9.94192316
C           2.48227356     -1.21915894     11.46417089
C           3.11099020     -2.50297750     11.98312430
O           3.43375646     -3.40063818     11.22954425
O           3.28389171     -2.58949858     13.26181251
H           4.37535870      0.09105149      2.13747546
H           3.16439272     -1.07339747      2.70288681
H           3.44202292     -0.85216037      0.96442892
H           5.74512229     -1.76495305      1.23331805
H           4.50547826     -2.92673343      1.73657095
H           6.22828289     -2.99629408      3.39260200
H           4.86163010     -2.13439259      4.11768540
H           5.96800322      0.02753505      3.59853565
H           7.33782147     -0.85156547      2.89556399
H           6.37185397     -1.13996997      5.76430849
H           7.71215623     -0.09183222      5.26220107
H           9.09736864     -1.97711979      4.65572713
H           8.61728245     -4.14328404      5.58607765
H           6.04921611     -4.47133999      5.53386930
H           5.91145594     -2.92080419      6.34883220
H           7.75799621     -4.46026066      7.93743578
H           5.93876981     -5.51658603      9.16662274
H           3.81135842     -5.93017578      8.12623822
H           4.32547674     -5.13440785      6.62564453
H           4.12472896     -2.93226014      7.71029790
H           3.63822072     -3.71959200      9.22609634
H           1.65108473     -4.64704493      8.13238092
H           2.16669223     -3.97507282      6.57627078
H           0.42192062     -2.59283635      7.54536570
H           1.93948452     -1.68565815      7.48642563
H           1.46576122     -3.18847282     10.00756962
H           0.34766808     -1.84981799      9.72047744
H           2.13245510     -0.25952079      9.55984132
H           3.36025536     -1.53271217      9.54220273
H           1.48646270     -1.10807701     11.89499331
H           3.09079899     -0.37420554     11.78743963
H           2.98041041     -1.80395867     13.72578017
          52
 Energy =    -62.36056703 a.u.  #Cluster:  144
C           8.49026882     -2.84213019      6.32753795
C           7.10898854     -2.41492837      6.79678190
C           7.13670642     -1.00870984      7.37944239
C           5.77303286     -0.59821189      7.92149929
C           4.77473166     -0.32211229      6.80673524
C           3.37428732     -0.19909718      7.32871717
C           2.36425361      0.30492398      6.64332919
C           2.49681865      0.85902633      5.25022317
C           3.01398856     -0.11698563      4.21911512
C           2.64760325     -1.37713822      4.07157747
C           1.72129377     -2.14836391      4.95965953
C           2.51976651     -3.19251222      5.74003741
C           1.71093416     -3.80462127      6.87232134
C           2.57726769     -4.70440739      7.74756001
C           3.55570747     -3.89800216      8.58981798
C           4.46655740     -4.79523169      9.41036481
C           5.45484709     -3.98594299     10.23998231
C           6.56990016     -4.87472030     10.76320677
O           6.77801403     -5.96620064     10.26806123
O           7.28881868     -4.41049444     11.73174938
H           8.84576085     -2.15495927      5.55977124
H           8.45913013     -3.84979328      5.91580628
H           9.18618006     -2.82212691      7.16627419
H           6.75344101     -3.10599207      7.56284713
H           6.41570674     -2.44880511      5.95546335
H           7.44418116     -0.30156207      6.60683938
H           7.86933810     -0.98193835      8.18785650
H           5.87375298      0.29378347      8.54105540
H           5.39140303     -1.41081249      8.54298816
H           4.81117106     -1.14730014      6.09064385
H           5.05526346      0.59027213      6.27459395
H           3.22479164     -0.58437649      8.33201894
H           1.37546671      0.35938471      7.08443478
H           3.18512658      1.70730077      5.28326983
H           1.52615652      1.23080960      4.91551055
H           3.72662006      0.31241677      3.52209078
H           3.08810349     -1.97335514      3.27720782
H           0.96158412     -2.65563128      4.36185275
H           1.22194145     -1.48288467      5.66398047
H           3.40173358     -2.70672584      6.15781915
H           2.85332279     -3.97798707      5.06051542
H           0.88543044     -4.37998836      6.45079008
H           1.29863616     -3.00347017      7.48921992
H           3.13728734     -5.38966597      7.10827759
H           1.94248064     -5.29000691      8.41437208
H           2.99899170     -3.23857761      9.25845024
H           4.17748380     -3.28084578      7.93949846
H           5.03459740     -5.44559932      8.73893720
H           3.86246603     -5.42269089     10.06844737
H           4.94550210     -3.48445004     11.06282073
H           5.90495865     -3.22159455      9.60298913
H           7.00746228     -3.53510861     12.01249045
          52
 Energy =    -62.36050789 a.u.  #Cluster:  145
C           8.79028003     -2.95967769      6.54601268
C           7.54487569     -2.33247202      7.15383539
C           6.41860811     -2.19541684      6.13644635
C           6.69722751     -1.08825918      5.12868838
C           5.57768238     -0.97684956      4.09702109
C           4.27549307     -0.62292235      4.74847235
C           3.11286091     -1.19721293      4.50063127
C           2.91057395     -2.31536433      3.50670540
C           3.54833383     -3.60770716      3.95674566
C           3.18432303     -4.27557603      5.03602109
C           2.13264393     -3.82582401      6.00234808
C           2.78989162     -3.15972318      7.21059342
C           1.75325078     -2.65994701      8.20500596
C           2.37044816     -1.83007558      9.33275966
C           2.70222923     -2.64203727     10.58278267
C           3.73102840     -3.75171746     10.37331097
C           5.08524133     -3.23911688      9.88839876
C           5.76487909     -2.37814968     10.93863119
O           5.19855545     -2.07149735     11.97051760
O           6.96945777     -1.98817616     10.67439252
H           9.16978193     -2.33585207      5.73726375
H           8.54793792     -3.94455524      6.14637517
H           9.56702593     -3.06464702      7.30209125
H           7.78890742     -1.34413764      7.54605615
H           7.20634091     -2.95806425      7.98148465
H           5.48987612     -1.96523264      6.66129592
H           6.29266151     -3.14313454      5.60901195
H           7.63678784     -1.29145658      4.61439030
H           6.78753583     -0.13954529      5.66104788
H           5.48968445     -1.92337146      3.56349972
H           5.83990283     -0.19670373      3.37789712
H           4.34656027      0.17948218      5.47701046
H           2.22246195     -0.87660369      5.02976945
H           3.33868147     -2.02285351      2.54727510
H           1.83962496     -2.47698936      3.37245958
H           4.35051965     -3.97894588      3.32889700
H           3.69596137     -5.19198126      5.31329496
H           1.55035503     -4.68052755      6.35124102
H           1.45890824     -3.11079067      5.52755971
H           3.38312844     -2.31087684      6.86695298
H           3.45682036     -3.87879159      7.68349430
H           1.21370283     -3.50887623      8.62830944
H           1.04185882     -2.04148660      7.65468385
H           1.66600540     -1.05142345      9.62760093
H           3.27119854     -1.34306150      8.95635433
H           1.78026880     -3.09545389     10.95084962
H           3.08090322     -1.96355966     11.35044569
H           3.33840035     -4.47769508      9.66130731
H           3.88241126     -4.25941388     11.32833925
H           4.96374406     -2.65097637      8.97909089
H           5.73258188     -4.08381962      9.65212420
H           7.27716473     -2.31414795      9.82289356
          52
 Energy =    -62.36046322 a.u.  #Cluster:  146
C           4.94435534      0.14830545      4.28174077
C           5.65700773     -0.97003439      3.53453856
C           6.86675707     -1.49239442      4.30460928
C           6.48079988     -2.25184004      5.57002075
C           5.84646135     -3.61275769      5.26778716
C           6.85812459     -4.59572131      4.75313357
C           7.62042673     -5.35145591      5.52235240
C           7.56564848     -5.37106215      7.02670779
C           6.71194524     -6.51386336      7.50406410
C           5.61108559     -6.41812390      8.22619534
C           4.96663830     -5.15718257      8.71281018
C           3.55075563     -5.02854211      8.15354797
C           2.91045458     -3.69956435      8.53687345
C           3.50882954     -2.54330059      7.74675652
C           2.85403233     -1.20891838      8.08087699
C           3.23785185     -0.72267754      9.47269985
C           2.58985020      0.62077379      9.79395737
C           1.08657027      0.46376833      9.95520151
O           0.54450952     -0.61077334      9.77630726
O           0.42105989      1.52080357     10.28828235
H           5.64307198      0.96075488      4.48233302
H           4.55110099     -0.21872995      5.22954107
H           4.11685410      0.53053481      3.68582573
H           5.99197154     -0.58934222      2.56907863
H           4.95695873     -1.78736308      3.35668685
H           7.49357718     -0.64191127      4.57818157
H           7.44594218     -2.15450353      3.65946095
H           5.77635079     -1.65356757      6.14764011
H           7.36963203     -2.41462359      6.18043951
H           5.05040560     -3.48148172      4.53455293
H           5.40324181     -3.99419982      6.18620377
H           6.95945382     -4.64093737      3.67354951
H           8.32345246     -6.05238111      5.08388177
H           7.17416399     -4.42548091      7.39883547
H           8.57792524     -5.50307657      7.41492594
H           7.07031323     -7.48860767      7.18551270
H           5.06679589     -7.31806541      8.50032642
H           5.55150525     -4.29046017      8.40587756
H           4.91021377     -5.16881377      9.80390374
H           2.94766114     -5.85335989      8.53548467
H           3.59063636     -5.09740211      7.06496015
H           3.05629015     -3.53246742      9.60508239
H           1.83893798     -3.74122747      8.33362322
H           3.38100954     -2.75055141      6.68331775
H           4.57670805     -2.47139331      7.95739627
H           1.76922284     -1.32206160      8.02676578
H           3.16760525     -0.46167351      7.34984967
H           4.32408323     -0.63678386      9.52941850
H           2.90550600     -1.45211663     10.21408486
H           2.79131386      1.32853531      8.98870875
H           3.00369917      1.02713006     10.71721043
H           0.98622953      2.29124196     10.39509322
          52
 Energy =    -62.36039739 a.u.  #Cluster:  147
C           5.02274572     -0.06192924      3.80950831
C           6.01771812     -1.10442455      3.31984513
C           7.04622098     -1.46350087      4.38850921
C           6.44059794     -2.16125213      5.60265746
C           5.86122358     -3.53934449      5.27015162
C           6.92187926     -4.49269459      4.79986723
C           7.67991643     -5.22323336      5.59694158
C           7.57234041     -5.24584682      7.09794921
C           6.74175590     -6.41843394      7.54259298
C           5.61870009     -6.36123227      8.23382196
C           4.92725555     -5.12268645      8.71286804
C           3.52971353     -5.01708394      8.10519556
C           2.84429337     -3.71322207      8.49566991
C           3.43978421     -2.52281437      7.75532490
C           2.75427996     -1.21266622      8.12349772
C           3.11585310     -0.76279282      9.53355996
C           2.41586411      0.54199862      9.90165207
C           0.92029664      0.31927303     10.05779364
O           0.42077539     -0.76772829      9.83553547
O           0.21431226      1.33447634     10.43475564
H           5.55688282      0.82426537      4.15280222
H           4.43265853     -0.45904948      4.63482000
H           4.34800716      0.22075109      3.00272889
H           6.54327418     -0.70785920      2.45034533
H           5.47865705     -2.00153715      3.01357448
H           7.53304386     -0.54481592      4.72060646
H           7.80353685     -2.11484821      3.94973454
H           5.64983844     -1.53967854      6.02253932
H           7.21381621     -2.28724521      6.36139760
H           5.09649319     -3.43064788      4.50102294
H           5.38655068     -3.93191257      6.16839055
H           7.06232248     -4.53802637      3.72463607
H           8.41882049     -5.90266274      5.18427784
H           7.13449692     -4.31509695      7.45556259
H           8.57379762     -5.34290995      7.52283431
H           7.13820356     -7.37901481      7.22622423
H           5.09272298     -7.27851737      8.48508373
H           5.50234881     -4.23849830      8.43887552
H           4.83201118     -5.15112698      9.80094378
H           2.93427216     -5.86464010      8.44727851
H           3.60976195     -5.06006958      7.01752041
H           2.94964333     -3.56887641      9.57198908
H           1.78154638     -3.77503372      8.25508633
H           3.33572579     -2.69652576      6.68326580
H           4.50217828     -2.44050237      7.98893238
H           1.67274436     -1.34817985      8.05669744
H           3.05641785     -0.43569842      7.41943748
H           4.19787223     -0.63812715      9.59776136
H           2.80966996     -1.53083434     10.24674185
H           2.58756091      1.28493711      9.12160224
H           2.81479898      0.93194570     10.83844796
H           0.74876451      2.12172224     10.57261664
          52
 Energy =    -62.36007176 a.u.  #Cluster:  148
C           5.29060312      0.51517464      4.25014038
C           6.09185114     -0.62515341      3.63872652
C           7.19915439     -1.11682586      4.56715190
C           6.68737815     -1.62894551      5.91075525
C           5.71672704     -2.80395221      5.77079831
C           6.36951795     -3.99917625      5.14182928
C           7.02761208     -4.93842592      5.79621773
C           7.21030015     -5.00110445      7.28767316
C           6.53749997     -6.22391629      7.85019653
C           5.41821360     -6.22451026      8.54959517
C           4.60739759     -5.01554578      8.90687899
C           3.11082210     -5.30934546      8.88228648
C           2.30998940     -4.01106525      8.89434485
C           2.23339311     -3.38364408      7.50342258
C           2.00570590     -1.87792929      7.59403814
C           3.31875422     -1.14920234      7.87647235
C           3.09334406      0.14892095      8.64213292
C           2.67833576     -0.16899150     10.07046172
O           2.60527107     -1.31881792     10.46047200
O           2.41194778      0.83431278     10.84060879
H           5.96351247      1.31427153      4.56158112
H           4.73454803      0.16297709      5.11842100
H           4.58391512      0.90976158      3.52142474
H           6.54811344     -0.27936407      2.71037607
H           5.41924786     -1.44984029      3.40100980
H           7.88855130     -0.29133009      4.75283616
H           7.74754401     -1.91730651      4.06828028
H           6.18279027     -0.81995392      6.43899844
H           7.53820378     -1.95243152      6.51179607
H           4.85989620     -2.49338051      5.17343660
H           5.35563495     -3.06085089      6.76652303
H           6.29889412     -4.04402482      4.05947333
H           7.47077793     -5.77324011      5.26143127
H           6.81424331     -4.10180863      7.75543384
H           8.27959719     -5.05940109      7.50403111
H           7.03908508     -7.15776187      7.61543015
H           5.00503091     -7.15917745      8.91814205
H           4.81582981     -4.20876496      8.20369133
H           4.88120814     -4.66746057      9.90632450
H           2.85322089     -5.92041113      9.74781837
H           2.86441247     -5.86696026      7.97700301
H           2.78991815     -3.30687629      9.57899873
H           1.29775801     -4.19767066      9.25431874
H           1.42818267     -3.85738414      6.94124502
H           3.17044915     -3.55735523      6.97305964
H           1.30138785     -1.68623881      8.40533603
H           1.57547660     -1.50209649      6.66590733
H           3.83339093     -0.95323904      6.93611027
H           3.95662490     -1.79298718      8.48676214
H           2.31461537      0.73908058      8.15841315
H           4.00890731      0.74051184      8.66472075
H           2.51524472      1.67774356     10.39069349
          52
 Energy =    -62.36005596 a.u.  #Cluster:  149
C           9.10201387     -2.51897997      4.81000116
C           7.93425612     -2.23762607      5.74434796
C           6.63602876     -2.00960137      4.97926264
C           6.63817698     -0.69404671      4.21274351
C           5.29815349     -0.46150226      3.51492258
C           4.19418106     -0.32675544      4.51859143
C           3.10623517     -1.07272278      4.57388975
C           2.78959165     -2.19396786      3.61420383
C           3.69192929     -3.38529450      3.82511910
C           3.68641493     -4.13504742      4.91211390
C           2.81857203     -3.89789145      6.10860608
C           3.61614824     -3.21379142      7.21756465
C           2.74838988     -2.92953035      8.43162170
C           3.54630377     -2.21348167      9.51176346
C           2.69812573     -1.87943843     10.73427571
C           2.28186327     -3.11025901     11.53878882
C           3.45991306     -3.80948505     12.21475149
C           4.07700929     -2.93273318     13.29124500
O           3.69024654     -1.79474325     13.47923329
O           5.03199130     -3.45542738     13.98947144
H           8.87876008     -3.39130965      4.19537744
H          10.00661485     -2.71227892      5.38485315
H           9.27719216     -1.66438187      4.15731598
H           8.15291931     -1.35160743      6.34256741
H           7.80752843     -3.08801623      6.41564859
H           5.80526318     -1.99649192      5.68671376
H           6.48218379     -2.83361003      4.27994170
H           7.43292281     -0.70419672      3.46688337
H           6.82188057      0.12492089      4.91076513
H           5.10052334     -1.29437028      2.83990847
H           5.36380653      0.45765652      2.92825401
H           4.35764610      0.45669854      5.25308928
H           2.37264177     -0.90887429      5.35546737
H           2.90431199     -1.83621078      2.59050358
H           1.75268535     -2.50084424      3.76007980
H           4.38341420     -3.59780290      3.01757490
H           4.38013114     -4.96429817      5.01001894
H           2.43913876     -4.84738239      6.49115569
H           1.97191093     -3.26252042      5.84387290
H           4.01708199     -2.27163361      6.83945300
H           4.44978525     -3.85426834      7.51004506
H           2.35977413     -3.87243279      8.81950749
H           1.90581257     -2.30346141      8.13092721
H           3.94111789     -1.28744526      9.09014969
H           4.38947159     -2.84125169      9.80445989
H           1.79910473     -1.36205042     10.39507259
H           3.25335844     -1.20798604     11.39211119
H           1.76907177     -3.81290150     10.88104095
H           1.58418583     -2.79406245     12.31697972
H           4.22568222     -4.05657289     11.47885301
H           3.12145272     -4.74056275     12.67018730
H           5.22531053     -4.35979601     13.72632975
          52
 Energy =    -62.36005390 a.u.  #Cluster:  150
C           4.17179614     -0.93355384      4.03679883
C           4.90099235     -2.25600417      3.85104649
C           6.41596547     -2.07771718      3.87097109
C           6.96408000     -1.79018687      5.26745727
C           6.95438692     -3.02660241      6.15799801
C           7.93280219     -4.07078710      5.70010980
C           8.10767427     -5.23746523      6.29172177
C           7.32786639     -5.69158955      7.49501508
C           6.20269092     -6.59707343      7.07481659
C           4.91471720     -6.38165685      7.26604595
C           4.29804245     -5.18941079      7.92933826
C           3.32023346     -4.49580663      6.98446497
C           2.72865164     -3.23642369      7.60385228
C           3.76461875     -2.12681867      7.72568146
C           3.15425509     -0.82230296      8.22178313
C           2.73054801     -0.91035031      9.68006693
C           2.16248138      0.41701778     10.17651725
C           1.69884782      0.27446461     11.61451664
O           2.26072912      0.85680728     12.52286835
O           0.69794630     -0.51716505     11.82485388
H           4.44656858     -0.24489540      3.23769206
H           4.44121699     -0.48756886      4.99364195
H           3.09451886     -1.09123083      4.01649851
H           4.60507119     -2.69016561      2.89556810
H           4.60574270     -2.94172053      4.64623576
H           6.67369921     -1.24993604      3.20829965
H           6.89185831     -2.98204680      3.48922184
H           6.36353334     -1.00874513      5.73387717
H           7.99080800     -1.43232623      5.17968147
H           5.94921451     -3.45169191      6.16882361
H           7.19327002     -2.73429013      7.18315320
H           8.52137559     -3.80296737      4.82830831
H           8.82007659     -5.95817934      5.90418062
H           6.93666867     -4.82470290      8.02714751
H           7.99120581     -6.24411991      8.16436698
H           6.53399587     -7.49230496      6.55646262
H           4.18703185     -7.10428754      6.90619951
H           5.07099333     -4.48134396      8.22676207
H           3.75362617     -5.50555099      8.82259191
H           2.52044114     -5.19342298      6.73199829
H           3.84671535     -4.22067658      6.06850568
H           2.33124471     -3.48055348      8.59015234
H           1.91003132     -2.87799080      6.97710995
H           4.21040633     -1.96441919      6.74401625
H           4.55342806     -2.43169418      8.41469968
H           2.28458743     -0.57759934      7.60880952
H           3.88668728     -0.01946329      8.12084781
H           3.59506652     -1.18484116     10.28783600
H           1.96310681     -1.67815604      9.79362960
H           1.31936598      0.69226930      9.54199380
H           2.92953925      1.18966058     10.11440814
H           0.35778906     -0.90811610     11.01504664
          52
 Energy =    -62.35998037 a.u.  #Cluster:  151
C           3.27166448     -0.90837654      1.08472541
C           4.72354704     -1.34172889      1.21242562
C           5.07641136     -1.66045723      2.65703703
C           6.52729164     -2.09486914      2.79192646
C           6.87036498     -2.40946490      4.24182304
C           8.30228857     -2.82235236      4.39635670
C           8.76413314     -3.75141709      5.21230252
C           7.93944043     -4.54704915      6.18739290
C           8.14825031     -4.01837846      7.58083936
C           7.32442169     -3.21552554      8.22821678
C           6.00382242     -2.71087231      7.73379274
C           4.94393030     -2.74664852      8.82772187
C           3.61746080     -2.21130926      8.30918848
C           2.54138810     -2.20104201      9.38842866
C           2.12667667     -3.61208042      9.78886506
C           0.87256069     -3.63247765     10.65657044
C           1.06950010     -2.91870292     11.99339813
C           0.80664432     -1.42605463     11.86577671
O           0.38050207     -0.94791007     10.83132084
O           1.04926351     -0.70090338     12.90770122
H           3.02939506     -0.68314898      0.04713920
H           3.09917057     -0.01929185      1.69131459
H           2.61806345     -1.70621521      1.43748925
H           5.37543894     -0.54298647      0.85487604
H           4.89456687     -2.22889481      0.60047526
H           4.42848267     -2.46117873      3.01931690
H           4.90976682     -0.77520135      3.27416895
H           7.17728122     -1.29492598      2.43245132
H           6.69461660     -2.98163543      2.17790458
H           6.20589777     -3.19695206      4.59987761
H           6.68581828     -1.51457930      4.84256411
H           8.98665173     -2.27867146      3.75079219
H           9.82859201     -3.96111751      5.25441469
H           8.25375506     -5.59190196      6.15174420
H           6.88471052     -4.48779027      5.91933456
H           9.09205163     -4.30966237      8.03150214
H           7.58049147     -2.86438502      9.22422519
H           5.65834828     -3.30742230      6.88884879
H           6.11637083     -1.67741146      7.39470468
H           5.27440851     -2.13766298      9.67127004
H           4.81695090     -3.77491479      9.16843022
H           3.28392988     -2.83314953      7.47594961
H           3.77326357     -1.19489303      7.94284744
H           1.66032793     -1.67088908      9.02036074
H           2.92627640     -1.66898866     10.25962053
H           2.94168952     -4.08994957     10.33447611
H           1.93457611     -4.18653716      8.88058169
H           0.58718974     -4.66991525     10.83109042
H           0.06238100     -3.13084691     10.11937372
H           2.08346194     -3.08184107     12.36005773
H           0.37437028     -3.31710338     12.73329137
H           1.37628039     -1.22063472     13.64761320
          52
 Energy =    -62.35991688 a.u.  #Cluster:  152
C           6.44553488     -5.56703681     -0.24656390
C           7.14041237     -4.66226186      0.75866472
C           6.33985684     -3.39146415      0.99873738
C           7.03041877     -2.48472549      2.00410445
C           6.21741647     -1.21490707      2.25012413
C           6.90618002     -0.32990269      3.24205505
C           6.59490099     -0.21875757      4.52067530
C           5.48352495     -0.96130654      5.21072897
C           6.01866372     -2.22399929      5.82816114
C           6.11512908     -2.48356445      7.11842536
C           5.66249314     -1.60718367      8.24465973
C           4.74508445     -2.36766032      9.19650055
C           4.29977739     -1.48532860     10.35145971
C           3.39040060     -2.24237004     11.30706386
C           2.92984787     -1.35261209     12.45350049
C           2.21069970     -2.12765176     13.55256833
C           0.93084903     -2.80136169     13.05926393
C           1.22450948     -4.16437138     12.45126020
O           2.34035106     -4.64734604     12.49706776
O           0.23313305     -4.78017240     11.89603050
H           7.02685204     -6.47300545     -0.41183181
H           6.32899519     -5.04135262     -1.19434033
H           5.45865758     -5.84078941      0.12670749
H           8.13001305     -4.39404124      0.38514577
H           7.25892340     -5.19184235      1.70539709
H           5.34930120     -3.65420086      1.37556104
H           6.22045493     -2.85523266      0.05517117
H           8.01806682     -2.21358085      1.62690572
H           7.15076674     -3.02172845      2.94690500
H           5.22978024     -1.50212445      2.61493446
H           6.10090255     -0.68972797      1.30008766
H           7.75343826      0.21854316      2.84068157
H           7.18567525      0.41685160      5.17287546
H           4.71178255     -1.22607791      4.48474232
H           5.04059460     -0.32546095      5.97757424
H           6.38204360     -2.94296437      5.09930541
H           6.53668713     -3.42943685      7.44841462
H           5.13239073     -0.73291221      7.86433154
H           6.53350126     -1.26297654      8.80847588
H           5.27642743     -3.23560308      9.59142192
H           3.86545785     -2.71574821      8.65203737
H           3.76431557     -0.61931533      9.95719543
H           5.17910872     -1.13151024     10.89351375
H           3.92764262     -3.10253614     11.71338315
H           2.52559772     -2.60724463     10.75098117
H           2.26372438     -0.58227034     12.06030519
H           3.80634705     -0.86442730     12.88383624
H           1.97652460     -1.44157172     14.36658035
H           2.87974746     -2.90603421     13.93085944
H           0.43469083     -2.17034786     12.32117085
H           0.24421488     -2.94999951     13.89341003
H          -0.58388020     -4.27529564     11.94250237
          52
 Energy =    -62.35990410 a.u.  #Cluster:  153
C           7.92653342     -1.90227401      7.27006386
C           7.06578175     -0.71648984      6.86093857
C           6.54087950      0.01491574      8.08771204
C           5.82053509      1.31705920      7.75268513
C           4.53428203      1.10385284      6.95988367
C           4.76300669      0.96849702      5.48002349
C           3.81117780      0.75938868      4.59001550
C           2.35090934      0.60194052      4.91650221
C           1.79291633     -0.63299072      4.26604091
C           1.73734952     -1.82392693      4.83427208
C           2.23944068     -2.14703497      6.20756135
C           3.65184821     -2.72790979      6.13021608
C           4.25491712     -2.92665428      7.51265022
C           3.57123157     -4.02980479      8.30375314
C           4.26531361     -4.23148052      9.64322381
C           3.59927796     -5.30790524     10.49314164
C           3.70613213     -6.70475691      9.86852390
C           5.17013242     -7.06570288      9.70330934
O           5.79493491     -7.58538380     10.60955999
O           5.73434207     -6.74931145      8.58246503
H           8.77946535     -1.55532092      7.85322371
H           8.28763513     -2.43419778      6.39124230
H           7.33778018     -2.58629644      7.88119905
H           6.22919543     -1.07387747      6.26045919
H           7.66090239     -0.02736432      6.25981781
H           7.38533095      0.24184460      8.74147918
H           5.85510823     -0.64151783      8.62657414
H           6.49229089      1.95784221      7.17859243
H           5.57795892      1.82100351      8.68880334
H           3.86850348      1.95341068      7.12808737
H           4.02916575      0.21105993      7.33700427
H           5.79195391      1.08988467      5.15830593
H           4.04489069      0.68401528      3.53257531
H           1.81283601      1.47741345      4.54533363
H           2.22317723      0.54941609      5.99775011
H           1.45538211     -0.49846571      3.24343640
H           1.35141045     -2.67433493      4.28034311
H           1.57945731     -2.87232723      6.68488183
H           2.27338065     -1.24576036      6.82226298
H           4.28082681     -2.03804991      5.56508538
H           3.62100570     -3.68510919      5.60738286
H           4.18326840     -1.98909860      8.06752103
H           5.30981105     -3.18429598      7.40868305
H           3.61696938     -4.95487033      7.72596874
H           2.52437066     -3.77486604      8.47464821
H           4.24581888     -3.28635800     10.18844245
H           5.30721193     -4.50043535      9.45853540
H           2.54608548     -5.05241857     10.62221232
H           4.07417905     -5.33357050     11.47563625
H           3.19908345     -6.71212536      8.90467663
H           3.22881809     -7.42439334     10.53342144
H           5.11861472     -6.36337514      7.95294545
          52
 Energy =    -62.35985629 a.u.  #Cluster:  154
C           3.07545428     -0.93038258      1.34232344
C           4.24286745     -1.89134173      1.50270936
C           4.89645146     -1.73835566      2.86746473
C           6.06642558     -2.69507165      3.03281115
C           6.71297661     -2.53655166      4.40390513
C           7.88112401     -3.45885367      4.56816541
C           8.12943992     -4.23949694      5.60303982
C           7.30885365     -4.32255110      6.86010668
C           8.06607865     -3.71649343      8.00997330
C           7.76330825     -2.57936850      8.60856358
C           6.57270637     -1.72626063      8.28160545
C           5.32790103     -2.21806477      9.01912259
C           4.11539056     -1.37599472      8.65278835
C           2.86471974     -1.82328182      9.40028456
C           2.39119070     -3.19729045      8.94112130
C           1.01163035     -3.55489364      9.48428330
C           0.98715969     -3.65312983     11.00914847
C           0.75286153     -2.29171240     11.64554554
O           0.49704197     -1.31514244     10.96632586
O           0.83070465     -2.22973098     12.93408249
H           2.61427067     -1.04864914      0.36286479
H           3.42749939      0.09580799      1.44810908
H           2.32975167     -1.12687790      2.11271302
H           4.98614045     -1.69476783      0.72829795
H           3.88878124     -2.91746480      1.39095647
H           4.15812168     -1.93857658      3.64658683
H           5.25360553     -0.71319536      2.98478996
H           6.80899311     -2.49305655      2.25861743
H           5.71049361     -3.72021083      2.91543746
H           5.96218341     -2.72504612      5.17212561
H           7.05267440     -1.50245702      4.50689485
H           8.55597089     -3.45944374      3.71623645
H           9.01777754     -4.86410814      5.61416326
H           7.11213299     -5.37319248      7.08550284
H           6.35602496     -3.81311257      6.72641000
H           8.94424490     -4.28007478      8.31005509
H           8.36882742     -2.22620473      9.43754837
H           6.36794957     -1.75663254      7.21058505
H           6.76442117     -0.69152533      8.56851665
H           5.49672878     -2.16128089     10.09586448
H           5.14636478     -3.25792989      8.74557414
H           3.93939373     -1.45513571      7.57803011
H           4.32916678     -0.33331167      8.89455474
H           2.06052683     -1.10377304      9.23196885
H           3.08829722     -1.84876879     10.46776641
H           3.10569927     -3.95541098      9.26525676
H           2.35219694     -3.20270987      7.85009731
H           0.70150447     -4.50471477      9.04861332
H           0.30042968     -2.78068100      9.18193943
H           1.92622270     -4.07107951     11.37339092
H           0.17824379     -4.31234892     11.32609898
H           1.03543237     -3.08164296     13.33014747
          52
 Energy =    -62.35981985 a.u.  #Cluster:  155
C           7.94902276     -2.23409963      6.90888257
C           7.73510309     -0.99310602      6.05639999
C           6.54258286     -1.17535230      5.13126116
C           6.27483479      0.06774215      4.29697028
C           5.03345018     -0.11327107      3.42310308
C           3.81618199     -0.30468010      4.27538440
C           3.00822985     -1.34863082      4.24694199
C           3.16857753     -2.53086491      3.32189146
C           4.36786943     -3.37249952      3.68305425
C           4.47741390     -4.06917336      4.79943285
C           3.45467527     -4.10696871      5.89203495
C           3.87150248     -3.19252984      7.04240595
C           2.88670851     -3.26002000      8.19684154
C           3.29745779     -2.30958159      9.31220634
C           2.36429408     -2.38952072     10.51596934
C           2.52536459     -3.68646873     11.30241533
C           3.85979639     -3.75427283     12.04390348
C           3.92946660     -5.03980354     12.84781071
O           4.69441080     -5.93513464     12.54213448
O           3.11809638     -5.14371886     13.84918661
H           7.05441685     -2.42880569      7.50094091
H           8.79687435     -2.09924896      7.57890839
H           8.13625821     -3.09378302      6.26536272
H           8.62785776     -0.79904200      5.45983423
H           7.55504014     -0.13307185      6.70351065
H           5.66057854     -1.39413570      5.73588289
H           6.72641643     -2.02285339      4.46837814
H           7.14085143      0.27180616      3.66633995
H           6.11855677      0.91706161      4.96469372
H           5.18079509     -0.97348581      2.76988262
H           4.90485230      0.77866900      2.80585258
H           3.63776384      0.50424692      4.97812671
H           2.16476739     -1.40200360      4.92639192
H           3.27961836     -2.17366924      2.29748406
H           2.26971474     -3.14685749      3.37867978
H           5.17669587     -3.36834720      2.96109048
H           5.38183314     -4.63319568      5.00569417
H           3.35942421     -5.12386254      6.27800063
H           2.48330469     -3.78057841      5.51733083
H           3.92581307     -2.16440210      6.68064296
H           4.86072960     -3.48857541      7.39596078
H           2.85293832     -4.28329458      8.57431928
H           1.89172241     -2.98897062      7.83837598
H           3.28979529     -1.29210172      8.91798754
H           4.31624929     -2.54725912      9.62286910
H           1.33539743     -2.30885813     10.16077155
H           2.56835486     -1.55296396     11.18643910
H           2.44802699     -4.53716523     10.62341873
H           1.72475534     -3.75743240     12.04110397
H           3.93304942     -2.89430515     12.71052121
H           4.68539431     -3.73323933     11.33256712
H           2.57331968     -4.36049667     13.96784561
          52
 Energy =    -62.35968485 a.u.  #Cluster:  156
C           6.63968673     -5.22575658     -1.05973809
C           7.30755861     -4.34175371     -0.01835320
C           6.29932276     -3.41528503      0.64385357
C           6.96355842     -2.52726479      1.68351181
C           5.94809555     -1.59741127      2.34268722
C           6.61682414     -0.70299561      3.33919328
C           6.41138484     -0.68293226      4.64302624
C           5.45352342     -1.55511150      5.40523644
C           6.21341860     -2.51676579      6.27550586
C           6.27586382     -2.49149668      7.59380559
C           5.56460344     -1.53993644      8.50454865
C           4.76682770     -2.28787177      9.56763949
C           4.04945580     -1.31984551     10.49450077
C           3.24497678     -2.05857207     11.55288644
C           2.50768995     -1.08650365     12.46370347
C           1.87446634     -1.76989992     13.67105578
C           0.81402277     -2.79788887     13.27860456
C           1.44064667     -4.15333775     12.98903221
O           2.62569625     -4.35303258     13.17929146
O           0.65289812     -5.07539848     12.54224498
H           7.37013072     -5.88386274     -1.52813417
H           6.17750803     -4.60424791     -1.82678072
H           5.86711087     -5.83161665     -0.58617496
H           8.08380602     -3.74032245     -0.49430175
H           7.77267935     -4.96608355      0.74626496
H           5.52223777     -4.01172791      1.12605791
H           5.83153013     -2.78710401     -0.11692716
H           7.73908463     -1.92851668      1.20225902
H           7.42893735     -3.15412618      2.44632224
H           5.17644663     -2.20210731      2.82094085
H           5.48093902     -0.99127932      1.56275036
H           7.35563433     -0.03808418      2.89972060
H           6.98181216     -0.00557177      5.27201318
H           4.82880366     -2.11951495      4.71090000
H           4.80937504     -0.92453462      6.02054041
H           6.77655388     -3.26037911      5.71895999
H           6.87211777     -3.23193900      8.12058414
H           4.88594835     -0.89981150      7.93896190
H           6.29715612     -0.90377916      9.00811062
H           5.44351710     -2.91299672     10.15313766
H           4.03024067     -2.93091488      9.08254016
H           3.37647098     -0.69212233      9.90689235
H           4.78477309     -0.67689643     10.98245805
H           3.91658944     -2.67581757     12.15412254
H           2.52929712     -2.71331891     11.05352353
H           1.73105831     -0.57951892     11.88785982
H           3.21975619     -0.33815097     12.81681608
H           1.43004967     -1.00667706     14.30992200
H           2.65675845     -2.28720534     14.23408236
H           0.26416614     -2.45415734     12.40187034
H           0.10231393     -2.92753423     14.09469365
H          -0.25363133     -4.76877347     12.44869915
          52
 Energy =    -62.35964493 a.u.  #Cluster:  157
C           6.60456322     -4.88787287     -1.43419824
C           7.35189088     -4.17721412     -0.31685363
C           6.41857716     -3.28518410      0.48726918
C           7.16242191     -2.56742740      1.60193113
C           6.22094904     -1.67497521      2.40550256
C           6.96446011     -0.94801921      3.48210879
C           6.73090880     -1.00333349      4.78003451
C           5.65889024     -1.80873886      5.45953662
C           6.27930124     -2.83894034      6.36090877
C           6.29952267     -2.80561454      7.68041844
C           5.66603529     -1.77187016      8.55847950
C           4.77763669     -2.41775149      9.61640324
C           4.14885348     -1.36857072     10.51902287
C           3.25735291     -2.00745293     11.57271196
C           2.61409656     -0.95443889     12.46456568
C           1.89539071     -1.55611521     13.66757541
C           0.73662973     -2.46833038     13.26709253
C           1.21929701     -3.88451517     12.99308441
O           2.37240393     -4.20920619     13.20611195
O           0.34571157     -4.71896054     12.53390421
H           7.28142352     -5.52323228     -2.00358342
H           6.15961466     -4.15201355     -2.10408547
H           5.81034567     -5.50319438     -1.01137694
H           8.14896598     -3.56558525     -0.74274312
H           7.80014279     -4.91577432      0.34975797
H           5.62250124     -3.89319919      0.92170255
H           5.96611200     -2.54473957     -0.17550648
H           7.95532780     -1.95484915      1.16873574
H           7.61528063     -3.30681550      2.26498619
H           5.42772322     -2.29128261      2.83063545
H           5.76869424     -0.95112557      1.72281414
H           7.78252655     -0.33836264      3.10743962
H           7.35748948     -0.44360799      5.46861565
H           5.03865658     -2.30975775      4.71475430
H           5.02740021     -1.13613224      6.04333608
H           6.77868082     -3.64458732      5.83064590
H           6.79472329     -3.59947366      8.23343478
H           5.06576126     -1.07920643      7.96669024
H           6.44719830     -1.20084242      9.06713032
H           5.37654458     -3.10078182     10.22167385
H           3.98676066     -2.98856808      9.12644741
H           3.55258934     -0.68348906      9.91295222
H           4.93856963     -0.79751093     11.01140707
H           3.85267503     -2.68529123     12.18891714
H           2.48367656     -2.58894676     11.06920937
H           1.90345551     -0.37378738     11.87328423
H           3.39616177     -0.28210467     12.82246956
H           1.52643616     -0.74453662     14.29477346
H           2.61027933     -2.14925772     14.24525630
H           0.23698953     -2.07400638     12.38164855
H           0.00546527     -2.51628354     14.07482948
H          -0.52081309     -4.31748079     12.42211618
          52
 Energy =    -62.35943999 a.u.  #Cluster:  158
C          11.50633564     -3.06947499      4.93408681
C          10.25770815     -2.87232522      5.77899169
C           9.11483317     -2.30975016      4.94744373
C           7.86446717     -2.12394482      5.79356375
C           6.71001962     -1.53427997      4.97940506
C           6.28181256     -2.47697435      3.89258985
C           5.40578575     -3.45406011      4.04217563
C           4.69076511     -3.77806564      5.32315383
C           5.38355898     -4.90458820      6.03889068
C           5.83714815     -4.87701910      7.27889168
C           5.71044711     -3.73665639      8.24348989
C           4.58794528     -3.99704649      9.24968363
C           3.23434555     -4.04150213      8.55447031
C           2.08682427     -4.24719973      9.53852273
C           1.81967437     -3.02160247     10.40706764
C           1.24043357     -1.86559756      9.60641026
C           0.93892497     -0.65993791     10.48710940
C           0.59331083      0.54409890      9.62646480
O           0.85662868      0.55388054      8.43879203
O           0.02478199      1.54575890     10.21274869
H          11.81841802     -2.11423415      4.51177400
H          11.29222465     -3.76057630      4.11874023
H          12.31763706     -3.47302253      5.53823918
H          10.47526430     -2.18396788      6.59731691
H           9.94963533     -3.82915394      6.20381134
H           8.90087054     -2.99491884      4.12516920
H           9.41279714     -1.34669363      4.52794117
H           8.09569433     -1.45712616      6.62547099
H           7.56096877     -3.09017940      6.19800788
H           7.03876518     -0.58976195      4.54391283
H           5.87399483     -1.34028935      5.65318366
H           6.77385906     -2.33390073      2.93583407
H           5.17974023     -4.11954690      3.21506971
H           3.66823119     -4.08838182      5.09629013
H           4.65049231     -2.89772693      5.96460032
H           5.51498408     -5.79377416      5.42910942
H           6.31387714     -5.75967150      7.69586288
H           5.48881264     -2.81043740      7.71244091
H           6.65138934     -3.61357736      8.78158639
H           4.58912899     -3.20158926      9.99508669
H           4.76750554     -4.94880144      9.75273736
H           3.23491651     -4.86213715      7.83542266
H           3.08531934     -3.10896183      8.00790934
H           2.33094508     -5.09664450     10.17870824
H           1.17581660     -4.47958043      8.98427592
H           2.74771494     -2.69756625     10.88088295
H           1.10997060     -3.28885937     11.19178582
H           0.32190028     -2.19254125      9.11470811
H           1.94874042     -1.55213537      8.83545717
H           1.82251362     -0.41845916     11.08078504
H           0.11978710     -0.88387697     11.17080321
H          -0.11511075      1.39216244     11.15139644
          52
 Energy =    -62.35935791 a.u.  #Cluster:  159
C           7.49490543     -5.45915775     -0.45278514
C           7.94999312     -4.37233927      0.50831067
C           6.85836929     -3.33468850      0.72080769
C           7.30836041     -2.24876637      1.68417369
C           6.20540908     -1.21463969      1.90360754
C           6.65871112     -0.15228885      2.85636130
C           6.35016871     -0.08654197      4.13885329
C           5.47921102     -1.06798992      4.87314936
C           6.32892016     -2.12473062      5.52357658
C           6.43062691     -2.36297664      6.81755215
C           5.68294410     -1.67502019      7.91690735
C           4.89124394     -2.67903952      8.74945771
C           4.14445338     -1.98662369      9.87782759
C           3.34495913     -2.97896279     10.70730901
C           2.59241204     -2.28617801     11.83268850
C           1.78948179     -3.27828999     12.65747958
C           1.02715378     -2.59896115     13.78703547
C           0.26068173     -3.63102895     14.59667415
O           0.33674666     -4.81470201     14.32724211
O          -0.46469207     -3.19176013     15.57261711
H           8.28356787     -6.19593095     -0.59837455
H           7.24081582     -5.01518456     -1.41534823
H           6.61215759     -5.95751666     -0.05203977
H           8.83687805     -3.87874501      0.10759345
H           8.20682424     -4.81977811      1.46990594
H           5.96875932     -3.82343791      1.12322847
H           6.59997002     -2.87950057     -0.23738795
H           8.19331838     -1.75291752      1.28142514
H           7.56764469     -2.70470628      2.64160518
H           5.32417030     -1.72699757      2.29354135
H           5.95315972     -0.76814915      0.93982727
H           7.32924292      0.58340086      2.42179718
H           6.76697501      0.69984730      4.76038520
H           4.79842908     -1.55287026      4.16973018
H           4.88956237     -0.54318913      5.62510696
H           6.91931510     -2.70024908      4.81600757
H           7.08889543     -3.15276889      7.16995457
H           4.99470472     -0.93261174      7.51074120
H           6.39149207     -1.16573123      8.57504883
H           5.57650864     -3.41704421      9.17044621
H           4.17372720     -3.19486559      8.10877443
H           3.46556359     -1.24302493      9.45547632
H           4.86146784     -1.47409921     10.52233018
H           4.02358973     -3.72118837     11.13232812
H           2.63053362     -3.49300620     10.06115756
H           1.91614613     -1.54204168     11.40721412
H           3.30661599     -1.77414391     12.48059513
H           2.46377812     -4.02395271     13.08525620
H           1.07739276     -3.79443585     12.00949481
H           0.33004357     -1.86700745     13.37702686
H           1.72547445     -2.07419281     14.44058029
H          -0.42210486     -2.23533230     15.66020784
          52
 Energy =    -62.35933346 a.u.  #Cluster:  160
C           7.08301780     -5.61429649     -0.21385536
C           7.66822844     -4.51819224      0.66252922
C           6.65940500     -3.40403750      0.89585298
C           7.23908124     -2.30986159      1.77704719
C           6.21770315     -1.20044480      2.02265137
C           6.79342246     -0.13727007      2.90617753
C           6.59862119     -0.03277541      4.20839547
C           5.75587148     -0.96112151      5.03680337
C           6.61610299     -2.01964514      5.67025105
C           6.70638328     -2.29102178      6.95855485
C           5.93421221     -1.64391267      8.06567319
C           5.07294741     -2.66949944      8.79775720
C           4.29514919     -2.02189741      9.93169158
C           3.42531926     -3.03480471     10.65935120
C           2.63649417     -2.38478794     11.78538260
C           1.76288814     -3.39620270     12.50865789
C           0.96031368     -2.75724847     13.63389956
C           0.12068677     -3.80753969     14.34107052
O           0.16969768     -4.97473608     14.00254824
O          -0.63620232     -3.40132999     15.30741216
H           7.81306655     -6.40626156     -0.37455879
H           6.79230025     -5.19745546     -1.17817084
H           6.20033424     -6.03640865      0.26665253
H           8.55458933     -4.10081366      0.18199278
H           7.96165587     -4.93895611      1.62570434
H           5.77036591     -3.81683563      1.37697519
H           6.36581222     -2.97416254     -0.06388475
H           8.12258424     -1.88775652      1.29495398
H           7.53566841     -2.74164879      2.73486351
H           5.33319423     -1.64265497      2.48477845
H           5.93253043     -0.77234066      1.05989301
H           7.45332003      0.56068148      2.39927320
H           7.09694006      0.74913700      4.77304323
H           5.01583701     -1.45162425      4.39974673
H           5.23132240     -0.39329168      5.80573304
H           7.21705638     -2.57302227      4.95387837
H           7.36806378     -3.08405330      7.29684951
H           5.28860051     -0.85512583      7.67739910
H           6.62812684     -1.20162035      8.78470316
H           5.71422602     -3.45453720      9.20259209
H           4.37093033     -3.12051595      8.09408310
H           3.66121840     -1.23094945      9.52577039
H           4.99597800     -1.57473618     10.63951951
H           4.05895375     -3.82234705     11.07206220
H           2.73023131     -3.48652655      9.94873831
H           2.00533969     -1.59561415     11.37189319
H           3.33106501     -1.93468998     12.49742896
H           2.39191966     -4.18530138     12.92732417
H           1.07230877     -3.85276859     11.79590009
H           0.30804839     -1.98164547     13.23032334
H           1.63683090     -2.29228451     14.35241458
H          -0.56545118     -2.45411142     15.45577580
          52
 Energy =    -62.35921010 a.u.  #Cluster:  161
C           4.09704683     -0.82879193     -0.17084192
C           4.69816465     -2.08132793      0.44712035
C           5.38838988     -1.76634241      1.76521901
C           5.99399209     -3.01444854      2.38820281
C           6.68496127     -2.69174072      3.70259284
C           7.29663947     -3.90441748      4.34176284
C           7.86833410     -3.89026435      5.53063951
C           7.96905127     -2.65377154      6.37962204
C           8.19242431     -2.98482545      7.82265321
C           7.47445181     -2.55511547      8.84347125
C           6.27912663     -1.65551029      8.78086351
C           5.08666900     -2.28477651      9.49458230
C           3.87533985     -1.36593166      9.44130065
C           2.68962069     -1.93864309     10.20895762
C           2.12445703     -3.18382434      9.53576433
C           0.78873953     -3.61773245     10.13069570
C           0.90144223     -4.01752721     11.60138478
C           0.77705218     -2.80644002     12.51309257
O           0.49483368     -1.70982688     12.06786086
O           0.97651938     -3.00391170     13.77461297
H           3.60561928     -1.06510924     -1.11353771
H           4.88312131     -0.09601069     -0.35343595
H           3.36618643     -0.39663221      0.51274266
H           5.42610915     -2.51420362     -0.24101723
H           3.91002287     -2.81489780      0.62458935
H           4.66359863     -1.33614323      2.45936709
H           6.17929659     -1.03346908      1.59303705
H           6.71838951     -3.44551421      1.69461373
H           5.20387500     -3.74688179      2.56367383
H           5.95902976     -2.24612940      4.38873715
H           7.46408750     -1.94564539      3.52254742
H           7.24893421     -4.81465365      3.75312192
H           8.31074676     -4.78488794      5.95624041
H           7.06255893     -2.05798239      6.25720809
H           8.80883050     -2.05158811      6.01719809
H           9.03327326     -3.65148644      7.99310554
H           7.72671796     -2.86975640      9.85270128
H           6.00336860     -1.45029943      7.74568178
H           6.51174806     -0.70595307      9.26987972
H           5.35074210     -2.47294013     10.53698346
H           4.84696407     -3.23611781      9.01808586
H           3.58879295     -1.21266379      8.39896993
H           4.15217213     -0.40147202      9.87112742
H           1.89873676     -1.18812778     10.27267828
H           3.01606141     -2.18372352     11.22068925
H           2.83708522     -4.00436593      9.63154517
H           1.98359737     -2.96960306      8.47457829
H           0.40453688     -4.45583387      9.54920362
H           0.08186674     -2.78607813     10.05778250
H           1.85397031     -4.51646664     11.78281301
H           0.10134584     -4.71209950     11.85984333
H           1.18595091     -3.92108815     13.97324844
          52
 Energy =    -62.35909713 a.u.  #Cluster:  162
C           7.14219313     -5.30675468     -1.18649923
C           7.73086396     -4.18555968     -0.34477850
C           6.65098156     -3.47801442      0.45934398
C           7.23411166     -2.35788858      1.30564164
C           6.14494416     -1.65239889      2.10872471
C           6.72127953     -0.53968457      2.92722258
C           6.67756410     -0.42168217      4.24134760
C           6.03032228     -1.37948484      5.19985269
C           7.04915626     -1.94083592      6.15058519
C           7.00274773     -1.88760903      7.46875638
C           5.90396116     -1.30608735      8.30239879
C           5.27930850     -2.37267019      9.19767625
C           4.16806623     -1.78777895     10.05401372
C           3.53978107     -2.84621274     10.94673471
C           2.42095858     -2.26671749     11.79826887
C           1.79518807     -3.32752701     12.68843456
C           0.66920585     -2.76531955     13.54549785
C           0.10478824     -3.85081933     14.44626815
O           0.58822666     -4.96694169     14.45332027
O          -0.89955714     -3.53027434     15.19462016
H           7.92272290     -5.80588660     -1.75890043
H           6.40181658     -4.89907285     -1.87485516
H           6.65520199     -6.03545360     -0.53840502
H           8.22258181     -3.46049506     -0.99536904
H           8.47380478     -4.59580515      0.34116827
H           6.15607266     -4.19935225      1.11273303
H           5.90691966     -3.06124675     -0.22247779
H           7.72689332     -1.63361538      0.65440924
H           7.97611838     -2.77427424      1.98936255
H           5.64771156     -2.38458614      2.74635749
H           5.40997790     -1.24741719      1.40863458
H           7.23439876      0.21345462      2.33502414
H           7.15387234      0.42624377      4.72526791
H           5.56829866     -2.20169389      4.64938094
H           5.24982948     -0.85698725      5.75643257
H           7.89600431     -2.40820036      5.65607000
H           7.80365883     -2.33087018      8.05464422
H           5.12520265     -0.87649531      7.67080842
H           6.30846034     -0.51593822      8.93974741
H           6.04962177     -2.79433815      9.84593818
H           4.86984557     -3.17164563      8.57689971
H           3.39965515     -1.36377708      9.40443280
H           4.57571946     -0.98810666     10.67569706
H           4.30709688     -3.26680233     11.59974275
H           3.13795279     -3.64795785     10.32392367
H           1.65336086     -1.84679853     11.14517691
H           2.82187118     -1.46464357     12.42114829
H           2.56089922     -3.74820020     13.34457956
H           1.39922129     -4.13336016     12.06627276
H          -0.12308414     -2.37164396     12.90753400
H           1.04743152     -1.94797763     14.16124675
H          -1.16689005     -2.61426028     15.07765885
          52
 Energy =    -62.35909621 a.u.  #Cluster:  163
C           5.27087020     -5.10269938     -0.65068166
C           5.81458451     -3.73374716     -0.27338066
C           6.48937129     -3.76708521      1.08935480
C           7.03582023     -2.40048271      1.46986539
C           7.71675317     -2.43943255      2.83447283
C           8.28195622     -1.09905145      3.18881230
C           8.02564228     -0.39688409      4.27684659
C           7.15192613     -0.81227525      5.41829802
C           7.86483574     -0.71650629      6.73935939
C           7.28851449     -1.05003013      7.87824420
C           5.87598115     -1.54994225      7.95899203
C           5.41958387     -1.76625623      9.39204654
C           3.98370274     -2.26315532      9.44888538
C           3.52799720     -2.47645533     10.88375394
C           2.08878976     -2.96332834     10.94951201
C           1.64303759     -3.17995548     12.38617512
C           0.20162013     -3.66291184     12.47350495
C          -0.17398327     -3.93072141     13.92117643
O           0.65196964     -3.82549924     14.80784989
O          -1.39789524     -4.27407629     14.15706471
H           4.78803004     -5.06698120     -1.62618646
H           4.54421883     -5.42714091      0.09423373
H           6.08632149     -5.82528807     -0.68369511
H           4.99745437     -3.01095747     -0.24801366
H           6.54015396     -3.41061113     -1.02167178
H           7.30964360     -4.48748721      1.06916152
H           5.76672522     -4.08631939      1.84300017
H           6.21586021     -1.68044607      1.49367673
H           7.75905072     -2.08059800      0.71734107
H           8.52476854     -3.17455038      2.79292629
H           6.99252050     -2.76424024      3.58255102
H           8.94501655     -0.69470549      2.42852032
H           8.48945698      0.57601693      4.41396573
H           6.79472099     -1.83563272      5.28005784
H           6.26927151     -0.16481414      5.45461318
H           8.88615642     -0.35371219      6.70260154
H           7.81664398     -0.97750087      8.82297389
H           5.79328657     -2.49149363      7.40798597
H           5.21098841     -0.83004191      7.47296154
H           5.49351899     -0.82536590      9.94058338
H           6.07091506     -2.49879258      9.87238733
H           3.90723396     -3.20544395      8.90263112
H           3.33097722     -1.53105011      8.96912337
H           3.61311641     -1.53505513     11.43030327
H           4.17784303     -3.21298326     11.36060572
H           2.00144720     -3.90258876     10.39977761
H           1.43750832     -2.22459680     10.47817700
H           1.73810457     -2.24249361     12.93867834
H           2.29128636     -3.92164958     12.85916389
H           0.08627234     -4.58257466     11.89790201
H          -0.46942194     -2.91266062     12.05352610
H          -1.92865526     -4.31504514     13.35655638
          52
 Energy =    -62.35907852 a.u.  #Cluster:  164
C           3.73506908     -1.49171254     -0.37448038
C           5.15049768     -1.79865913      0.08860762
C           5.17942795     -2.15360407      1.56717472
C           6.59129351     -2.46816164      2.03665557
C           6.61220391     -2.82180978      3.51407834
C           7.99185806     -3.13797173      4.01264242
C           8.24584339     -3.43024297      5.27396536
C           7.17033003     -3.47106003      6.32265361
C           7.72384708     -3.60714332      7.70626337
C           7.35267347     -2.91279434      8.76613772
C           6.26748023     -1.88230045      8.81372018
C           5.06591871     -2.39816382      9.60296318
C           3.96754264     -1.34757783      9.66462742
C           2.77394253     -1.81563375     10.48899734
C           2.02463963     -2.95457043      9.80733893
C           0.68286269     -3.25364129     10.46804657
C           0.83059758     -3.72981533     11.91264237
C           0.90706833     -2.55504944     12.87557954
O           0.73642695     -1.41345574     12.49084669
O           1.15232997     -2.83185132     14.11399646
H           3.72538544     -1.23776589     -1.43346387
H           3.33593284     -0.65305510      0.19611314
H           3.09880139     -2.36167755     -0.21149128
H           5.78669914     -0.92843818     -0.08100829
H           5.54861922     -2.63648307     -0.48617387
H           4.54277131     -3.02316193      1.74277674
H           4.78819140     -1.31582131      2.14798048
H           7.22864498     -1.59915688      1.86272978
H           6.98293003     -3.30662503      1.45763780
H           5.96063746     -3.68346485      3.68663350
H           6.20307878     -1.98588326      4.08926750
H           8.77860004     -3.11678426      3.26610906
H           9.24900782     -3.66397512      5.61387075
H           6.51434435     -4.32297575      6.11275789
H           6.55803780     -2.56961233      6.24109619
H           8.50876674     -4.35323266      7.79375457
H           7.81939789     -3.10392046      9.72849141
H           5.93753242     -1.62267631      7.80684285
H           6.63935267     -0.97910690      9.30275082
H           5.38279471     -2.64923120     10.61690881
H           4.68508637     -3.29966760      9.12148497
H           3.63548873     -1.11897741      8.64992801
H           4.37985013     -0.43950556     10.10836105
H           2.08259394     -0.98290093     10.63544331
H           3.13238738     -2.14342548     11.46586539
H           2.63746303     -3.85698530      9.82737201
H           1.84930365     -2.67839759      8.76577467
H           0.16744107     -4.01340232      9.88042890
H           0.07862543     -2.34175951     10.47083393
H           1.72405883     -4.34658571     12.01507400
H          -0.03198275     -4.33490080     12.19412338
H           1.25870550     -3.77558616     14.26427140
          52
 Energy =    -62.35888763 a.u.  #Cluster:  165
C           8.11341806      0.23780072      0.79002251
C           7.35647268     -0.11190054      2.06155922
C           8.04679706      0.47428931      3.28523360
C           7.33483190      0.09630455      4.57799599
C           5.99743275      0.82330978      4.72275000
C           5.28509202      0.36666391      5.95787010
C           4.26022014     -0.46559136      5.97758554
C           3.63519705     -1.07905634      4.75028443
C           4.44167265     -2.27059659      4.30695451
C           4.23299725     -3.51499541      4.69602261
C           3.15931206     -3.95856843      5.64098193
C           3.71421804     -4.12437312      7.05496688
C           2.62733082     -4.57733664      8.01565400
C           3.16025082     -4.72374669      9.43233527
C           2.06695431     -5.18365087     10.38601708
C           2.58650775     -5.36591016     11.80558726
C           2.98240629     -4.04709592     12.45995065
C           3.21572412     -4.25110740     13.94843341
O           2.86473114     -5.27741027     14.49863945
O           3.78959633     -3.28736100     14.59076388
H           8.16244834      1.32099788      0.67866632
H           7.61533835     -0.18666744     -0.08043846
H           9.12840373     -0.15570752      0.84633406
H           7.30403114     -1.19665263      2.16889289
H           6.34026119      0.27765187      1.99284287
H           8.07531555      1.56207270      3.19735900
H           9.07205834      0.10133971      3.31758664
H           7.96434365      0.35099905      5.43171960
H           7.15836668     -0.98073574      4.58106416
H           5.38562048      0.61954000      3.84341231
H           6.19010870      1.89672637      4.77568208
H           5.70414537      0.74181240      6.88679472
H           3.83262282     -0.78855678      6.92095804
H           3.61111822     -0.34386818      3.94440415
H           2.61392335     -1.38449763      4.97927890
H           5.27486302     -2.03291169      3.65354566
H           4.89398922     -4.30790816      4.35885800
H           2.74915042     -4.91667825      5.31630940
H           2.35226247     -3.22442238      5.67201124
H           4.11945511     -3.17034939      7.39684286
H           4.51761500     -4.86300320      7.04405744
H           2.22777474     -5.53654748      7.68035442
H           1.81776276     -3.84465278      8.01163028
H           3.55531435     -3.76177685      9.76282963
H           3.97298723     -5.45293396      9.43659592
H           1.66400341     -6.13050314     10.02188358
H           1.26453022     -4.44327963     10.39062288
H           3.45207356     -6.03113056     11.78671540
H           1.81223653     -5.82732873     12.42418107
H           2.17657999     -3.32200484     12.33204506
H           3.88238658     -3.64118249     11.99876683
H           4.00392870     -2.54253990     14.02194696
          52
 Energy =    -62.35888387 a.u.  #Cluster:  166
C           7.00633968     -2.57095989      8.01357240
C           7.31842987     -1.52291184      6.95606834
C           6.27176874     -1.54957248      5.85335585
C           6.49665858     -0.45763190      4.81841300
C           5.45117589     -0.53285795      3.70501206
C           4.06733019     -0.42913007      4.27016096
C           3.07884865     -1.28066046      4.06530033
C           3.16023286     -2.50544619      3.18398779
C           4.15081347     -3.52520208      3.68615609
C           4.00154299     -4.23047902      4.79264068
C           2.86081629     -4.10047111      5.75510052
C           3.24307192     -3.14412994      6.88455186
C           2.30307838     -3.23379842      8.07480101
C           2.62877390     -2.14201848      9.09243534
C           2.32847269     -2.57644101     10.52324020
C           3.39990115     -3.52876813     11.04776279
C           4.69846450     -2.79560995     11.38363268
C           5.82676838     -3.79116269     11.57647839
O           6.33916631     -3.97369802     12.66409429
O           6.20170071     -4.44263038     10.52279353
H           6.02583131     -2.36990033      8.44607431
H           7.75146229     -2.55993655      8.80743898
H           6.98802885     -3.56031439      7.55692495
H           8.30254537     -1.71589849      6.52628881
H           7.32652835     -0.53319249      7.41560124
H           5.28963185     -1.40648056      6.30543498
H           6.28892351     -2.52477792      5.36296214
H           7.49402341     -0.56357056      4.39008718
H           6.42655398      0.51437801      5.30999046
H           5.57077471     -1.47235576      3.16595878
H           5.61970737      0.29183582      3.00854141
H           3.91838795      0.43143150      4.91620490
H           2.11726929     -1.11684377      4.53927499
H           3.44675304     -2.19815318      2.17716652
H           2.17176224     -2.96556978      3.13604015
H           5.03453374     -3.66117517      3.07285353
H           4.77233590     -4.93141806      5.09768780
H           2.63353802     -5.07493577      6.19110105
H           1.97092326     -3.72208377      5.24956909
H           3.24157854     -2.12192172      6.50522753
H           4.25150319     -3.38626267      7.22355550
H           2.42029261     -4.21524032      8.53774942
H           1.27074340     -3.13429579      7.73707466
H           2.06627649     -1.24097112      8.84852812
H           3.69222325     -1.90586285      9.01712605
H           1.35567065     -3.06958648     10.54367318
H           2.29275806     -1.70220059     11.17476259
H           3.61270036     -4.27921593     10.28306578
H           3.03695649     -4.03647137     11.94199472
H           4.56551655     -2.20180247     12.28815634
H           4.95486602     -2.13604231     10.55391276
H           5.70662186     -4.18955157      9.73824945
          52
 Energy =    -62.35885878 a.u.  #Cluster:  167
C           4.57910208     -2.71554350     -1.35040457
C           5.54744255     -2.04591893     -0.38814085
C           5.81786695     -2.92798176      0.82104081
C           6.78675171     -2.26374903      1.78600793
C           7.05552794     -3.15456694      2.99492760
C           8.02646397     -2.50797214      3.93283186
C           7.83554327     -2.24960754      5.21323391
C           6.61720623     -2.59859953      6.01911470
C           6.97266113     -3.55446223      7.12225452
C           6.78819691     -3.36145753      8.41505935
C           6.13641849     -2.17780702      9.05892278
C           4.87386558     -2.59616619      9.80795316
C           4.21944875     -1.39862189     10.48002956
C           2.97830910     -1.79584235     11.27069845
C           1.84316240     -2.24403230     10.35760763
C           0.51762371     -2.39176810     11.09740232
C           0.56231477     -3.47443590     12.17501703
C           1.09250590     -2.92271192     13.48947101
O           1.31933684     -1.73542206     13.62815680
O           1.27916332     -3.77285954     14.44488438
H           4.39274663     -2.07639104     -2.21229517
H           3.63470431     -2.91268235     -0.84285664
H           4.99776224     -3.66189713     -1.69316254
H           5.12784254     -1.09718854     -0.04958214
H           6.49008727     -1.84523209     -0.89995846
H           6.23962492     -3.87852666      0.48818652
H           4.87805985     -3.12886839      1.33928171
H           6.36434899     -1.31482289      2.12150129
H           7.72792342     -2.06384673      1.27038794
H           7.47031127     -4.10100854      2.63858885
H           6.11017120     -3.36099316      3.49867217
H           8.95826387     -2.21445119      3.45647102
H           8.61730764     -1.76423607      5.79049987
H           5.86604819     -3.06243983      5.37652338
H           6.19353350     -1.68479292      6.44017674
H           7.44421319     -4.46837167      6.77227878
H           7.08855296     -4.12966036      9.12276054
H           5.86987615     -1.42872009      8.31212743
H           6.82739572     -1.72431671      9.77373617
H           5.13473215     -3.33729349     10.56578168
H           4.17539546     -3.04820287      9.10270018
H           3.94071098     -0.66920431      9.71689197
H           4.94534307     -0.93798977     11.15261931
H           2.63364128     -0.94470302     11.86192792
H           3.24405634     -2.60525341     11.95218506
H           2.10051498     -3.20015910      9.89945379
H           1.72299213     -1.50206779      9.56582767
H          -0.26163128     -2.62560005     10.37198456
H           0.27413205     -1.44097368     11.58045897
H           1.18908442     -4.30440497     11.84714420
H          -0.44154143     -3.86010519     12.35637013
H           1.05169612     -4.67049913     14.18595081
          52
 Energy =    -62.35885839 a.u.  #Cluster:  168
C           4.51552093     -2.58078331     -1.26094843
C           5.49545088     -1.93283579     -0.29558305
C           5.80825718     -2.85655764      0.87156395
C           6.78870112     -2.21401041      1.83951994
C           7.09296379     -3.14304760      3.01099885
C           8.07458600     -2.51615227      3.95111718
C           7.89274573     -2.27159972      5.23558102
C           6.67559291     -2.61825761      6.04411069
C           7.03405733     -3.55292512      7.16405786
C           6.82747163     -3.34744530      8.45161828
C           6.14606188     -2.16736246      9.07088404
C           4.87610872     -2.59614713      9.80144429
C           4.19239684     -1.40022107     10.44676618
C           2.94494469     -1.80502354     11.22352255
C           1.83349278     -2.28996631     10.30005067
C           0.49631162     -2.44005268     11.01818073
C           0.53586437     -3.49579185     12.12239186
C           1.03379481     -2.90538904     13.43266219
O           1.24035303     -1.71186690     13.54727815
O           1.21547140     -3.72997616     14.41114455
H           4.29768875     -1.91135162     -2.09187901
H           3.58712641     -2.81461930     -0.73976514
H           4.94148964     -3.50517814     -1.65115653
H           5.06873326     -1.00525966      0.08953616
H           6.42242745     -1.69638728     -0.82055072
H           6.23694177     -3.78640184      0.49230430
H           4.88411968     -3.09288402      1.40289990
H           6.36150673     -1.28310045      2.21680391
H           7.71654708     -1.98393338      1.31252942
H           7.51194823     -4.07096252      2.61353193
H           6.16039837     -3.37843028      3.52570055
H           9.00528870     -2.22239243      3.47279923
H           8.68090643     -1.79766950      5.81370967
H           5.92970763     -3.09797498      5.40697377
H           6.24311020     -1.70104355      6.44881340
H           7.52662834     -4.46257454      6.83241257
H           7.13146077     -4.10121509      9.17314664
H           5.88216174     -1.43027118      8.31129588
H           6.81693588     -1.69603544      9.79327057
H           5.13365208     -3.32435828     10.57279674
H           4.19743697     -3.06657467      9.08894157
H           3.91484325     -0.68568209      9.66925696
H           4.90032244     -0.91921638     11.12425051
H           2.57565674     -0.94908954     11.79259059
H           3.21275601     -2.59680807     11.92462870
H           2.11275687     -3.25226274      9.86842129
H           1.71770165     -1.56768164      9.48964022
H          -0.26523933     -2.70301351     10.28397364
H           0.22951724     -1.48178499     11.47333066
H           1.17962613     -4.32465996     11.82620267
H          -0.46595774     -3.89079325     12.29474135
H           1.00596606     -4.63679714     14.16965225
          52
 Energy =    -62.35885034 a.u.  #Cluster:  169
C           5.04960516     -3.12182131     -1.59614104
C           5.92598304     -2.34074143     -0.62974221
C           6.04359196     -3.05790309      0.70631212
C           6.91729613     -2.28148427      1.67852601
C           7.03177106     -3.00871011      3.01372285
C           7.90893764     -2.25865303      3.96710758
C           7.62243926     -1.93844972      5.21534619
C           6.36907759     -2.30920342      5.95652851
C           6.66046280     -3.38219591      6.96813330
C           6.50944663     -3.28716219      8.27597547
C           5.96554647     -2.11549411      9.03215624
C           4.71086836     -2.50531931      9.80889136
C           4.17132549     -1.32116002     10.59685327
C           2.94598932     -1.69473176     11.42285432
C           1.74197744     -2.00910096     10.54266087
C           0.44564917     -2.12075099     11.33849604
C           0.46897110     -3.27164133     12.34363511
C           1.09865697     -2.84195712     13.65976333
O           1.40734812     -1.68240691     13.86104711
O           1.27852980     -3.76360954     14.54772172
H           4.97303465     -2.60136932     -2.54970280
H           4.05156441     -3.23917397     -1.17381472
H           5.47827312     -4.10994475     -1.76364582
H           5.49619084     -1.35122708     -0.46574922
H           6.92256725     -2.21944367     -1.05739331
H           6.47671444     -4.04772796      0.54851047
H           5.04875779     -3.18060948      1.13923908
H           6.48336833     -1.29295967      1.83953452
H           7.91323302     -2.15916087      1.24867802
H           7.45953315     -3.99802729      2.83066957
H           6.03281214     -3.14050457      3.43226640
H           8.85818716     -1.95340291      3.53473134
H           8.34449716     -1.39189780      5.81486626
H           5.61959893     -2.68139124      5.25500568
H           5.97000598     -1.42413746      6.45431118
H           7.05549720     -4.29543217      6.53220120
H           6.75878061     -4.13405855      8.90992196
H           5.71956642     -1.29735683      8.35394456
H           6.71547149     -1.76151581      9.74393210
H           4.95240173     -3.31709712     10.49761249
H           3.95261989     -2.85581740      9.10762615
H           3.90609402     -0.52143541      9.90244530
H           4.95819186     -0.95834136     11.26072834
H           2.68576756     -0.86623533     12.08519881
H           3.19085266     -2.56351499     12.03560370
H           1.91334614     -2.94741349     10.01302902
H           1.63433177     -1.21054357      9.80605670
H          -0.38037451     -2.25767958     10.64057291
H           0.28820410     -1.18987298     11.89103063
H           1.02067981     -4.11771084     11.93258486
H          -0.54893908     -3.60185709     12.55389844
H           0.98158343     -4.62667949     14.24528562
          52
 Energy =    -62.35884821 a.u.  #Cluster:  170
C           4.16882685     -2.32143540     -0.99868722
C           5.22000036     -1.73312656     -0.07080427
C           5.65312963     -2.74436448      0.97953190
C           6.70477958     -2.16109360      1.90943560
C           7.13080142     -3.17830485      2.96473171
C           8.17913110     -2.60415018      3.86563918
C           8.07218380     -2.39299043      5.16440642
C           6.89033563     -2.73119562      6.02670746
C           7.30767474     -3.57505529      7.19637442
C           7.08120893     -3.31299040      8.47034411
C           6.31699286     -2.14913795      9.01975119
C           5.05238589     -2.61943176      9.73425523
C           4.27780002     -1.43734930     10.29712069
C           3.03375932     -1.87849972     11.05932371
C           1.98730277     -2.48872464     10.13408337
C           0.63741036     -2.67798796     10.81829154
C           0.70407665     -3.65541152     11.99119554
C           1.11504063     -2.94956029     13.27424115
O           1.23769029     -1.73974458     13.31570359
O           1.31531699     -3.69491765     14.31084877
H           3.86573216     -1.58982379     -1.74625558
H           3.29511858     -2.62161882     -0.42016016
H           4.57402110     -3.19856776     -1.50328929
H           4.81323417     -0.85287056      0.42966008
H           6.09156180     -1.42929246     -0.65289398
H           6.06267680     -3.62724683      0.48461357
H           4.78500079     -3.04868083      1.56766329
H           6.29612427     -1.27731348      2.40273430
H           7.57691847     -1.86290578      1.32469679
H           7.53064883     -4.05712525      2.45300246
H           6.25225364     -3.48024490      3.53656593
H           9.08779334     -2.31342187      3.34513870
H           8.89899947     -1.94854434      5.71111658
H           6.14708282     -3.27687464      5.44138139
H           6.43213083     -1.80526442      6.38111656
H           7.86096499     -4.46700940      6.91649920
H           7.43079801     -4.00344364      9.23331022
H           6.03302728     -1.46175875      8.22169797
H           6.93871538     -1.60939211      9.73806033
H           5.32819373     -3.29174165     10.54878700
H           4.42653948     -3.16489562      9.02692660
H           3.98153316     -0.78193069      9.47566234
H           4.93396431     -0.87939964     10.96768181
H           2.59145237     -1.01724036     11.56475615
H           3.32811208     -2.60896118     11.81429746
H           2.33970599     -3.45648339      9.77421109
H           1.85646058     -1.82694648      9.27573767
H          -0.08003617     -3.03607054     10.07991160
H           0.29572342     -1.71152515     11.20023667
H           1.41033274     -4.45690682     11.77212017
H          -0.27586447     -4.10438094     12.15707614
H           1.17539250     -4.62767655     14.12399714
          52
 Energy =    -62.35884809 a.u.  #Cluster:  171
C           5.20771879     -3.26924208     -1.68556810
C           6.03348683     -2.44418315     -0.71119422
C           6.11794119     -3.12203428      0.64771440
C           6.94389002     -2.30253293      1.62630343
C           7.02315733     -2.98756797      2.98594801
C           7.85666226     -2.19648835      3.94542526
C           7.53208328     -1.86425515      5.18112719
C           6.27203278     -2.26075206      5.89802561
C           6.56198819     -3.35069769      6.89207970
C           6.43447208     -3.26843007      8.20327655
C           5.92290402     -2.09701317      8.98211084
C           4.69271563     -2.48184288      9.79922971
C           4.18649579     -1.29640872     10.60715014
C           2.98303940     -1.66250389     11.46794827
C           1.75112923     -1.96425538     10.62252407
C           0.47652279     -2.06101287     11.45455416
C           0.51612222     -3.20994067     12.46142336
C           1.18485049     -2.78330292     13.75917664
O           1.51112759     -1.62658592     13.94856356
O           1.37799864     -3.70429316     14.64501158
H           5.15381196     -2.77582261     -2.65490811
H           4.19817107     -3.39687676     -1.29478705
H           5.66225787     -4.25195046     -1.81152257
H           5.57859953     -1.45972798     -0.58997764
H           7.04199191     -2.31379910     -1.10704651
H           6.57386376     -4.10749041      0.53260274
H           5.11123581     -3.25146322      1.05014205
H           6.48863904     -1.31730607      1.74218560
H           7.95223379     -2.17567949      1.22786462
H           7.47072274     -3.97542822      2.84772005
H           6.01271889     -3.12225436      3.37505236
H           8.80723071     -1.87254897      3.52993112
H           8.22473452     -1.28936889      5.78865804
H           5.53620582     -2.62693498      5.17918705
H           5.85794178     -1.38956316      6.40755106
H           6.93726726     -4.26402407      6.43925295
H           6.68214097     -4.12594612      8.82346079
H           5.65975126     -1.27446718      8.31576601
H           6.69869547     -1.75045986      9.66947967
H           4.95223270     -3.29670529     10.47767471
H           3.90956606     -2.82625127      9.12275573
H           3.90717891     -0.49219863      9.92352171
H           4.99574627     -0.94213675     11.24833620
H           2.74936776     -0.83366453     12.13971569
H           3.23840787     -2.53500964     12.07104213
H           1.89716070     -2.90467196     10.08907702
H           1.63145415     -1.16501692      9.88853318
H          -0.37004424     -2.19081590     10.78027750
H           0.34414548     -1.12742089     12.00909587
H           1.04882818     -4.06197937     12.03787347
H          -0.49878037     -3.53025855     12.69962976
H           1.06379714     -4.56488988     14.35315628
          52
 Energy =    -62.35877241 a.u.  #Cluster:  172
C           7.18068927      0.97996920      0.33830285
C           6.79861041      0.39776132      1.69001098
C           8.00721853      0.32395696      2.61270193
C           7.65931313     -0.29650051      3.95991174
C           6.80805645      0.64322039      4.81483884
C           6.40888695     -0.02880075      6.09203945
C           5.23522912     -0.58800443      6.32347301
C           4.09401061     -0.63825058      5.34242731
C           4.18839420     -1.89487775      4.52039992
C           3.51293546     -3.00717598      4.74398312
C           2.53040928     -3.21538315      5.85544239
C           3.20529454     -3.87038119      7.05974003
C           2.21783709     -4.06924478      8.19754564
C           2.88525094     -4.70411543      9.40743777
C           1.89612361     -4.88987166     10.54904944
C           2.53606847     -5.56806597     11.75272374
C           3.59299725     -4.69808445     12.42386312
C           3.97895982     -5.28887880     13.77063711
O           3.30313048     -6.15934572     14.28519217
O           5.04178435     -4.81816047     14.33589182
H           7.58370410      1.98385314      0.47215738
H           6.31135282      1.03037878     -0.31566048
H           7.94196673      0.35541527     -0.12922894
H           6.39379922     -0.60649430      1.55367758
H           6.02870028      1.02210443      2.14464305
H           8.40119133      1.32938808      2.77303953
H           8.77794960     -0.27799788      2.12805943
H           8.57538814     -0.52984469      4.50426879
H           7.10691714     -1.22240294      3.78948560
H           5.91940598      0.92745803      4.24988126
H           7.38959483      1.54185488      5.02885052
H           7.19103956     -0.07314223      6.84407361
H           5.04728062     -1.10049201      7.26165295
H           4.13924812      0.22695156      4.67888196
H           3.14887568     -0.61776999      5.88599688
H           4.91595510     -1.84726313      3.71595545
H           3.68342401     -3.87938244      4.11997976
H           1.71662097     -3.86036233      5.51972230
H           2.11041821     -2.26002402      6.17555473
H           4.02250660     -3.23337334      7.40300021
H           3.61521703     -4.83759708      6.76382658
H           1.40132014     -4.70982996      7.85839461
H           1.80231647     -3.10112906      8.48449455
H           3.70639312     -4.06398017      9.73398320
H           3.29442616     -5.67563275      9.12283320
H           1.06168395     -5.49590574     10.19137019
H           1.51254205     -3.91293713     10.84985030
H           2.99412657     -6.50591471     11.43229183
H           1.76886992     -5.79707603     12.49713036
H           3.18843622     -3.69769836     12.58838812
H           4.47761264     -4.60868458     11.79391661
H           5.46564228     -4.13394942     13.81007500
          52
 Energy =    -62.35873581 a.u.  #Cluster:  173
C           6.94354872     -1.95877491      7.61576476
C           6.17018868     -0.71182569      7.21892387
C           5.79480789     -0.75352524      5.74595599
C           5.14456479      0.54399024      5.29249542
C           4.76708459      0.49047685      3.80862070
C           3.49712072     -0.27603364      3.58657851
C           3.39716500     -1.52144429      3.15571711
C           4.53988126     -2.42077295      2.79542002
C           4.40315432     -3.83957586      3.28509864
C           3.76370959     -4.27206015      4.35665253
C           3.00641164     -3.46436667      5.36555946
C           3.35323059     -3.87951748      6.79069947
C           2.58535226     -3.02561574      7.78867901
C           2.85475127     -3.42917716      9.23322860
C           4.27316053     -3.08196991      9.66373929
C           4.50551601     -3.35153891     11.14473597
C           4.50751060     -4.84517552     11.46622804
C           4.85802817     -5.05177042     12.92870032
O           4.03857083     -5.47403451     13.72255786
O           6.05808039     -4.73145048     13.28846479
H           6.34519010     -2.84277292      7.39538231
H           7.17478595     -1.94493228      8.67967652
H           7.87222476     -2.01327073      7.04775977
H           6.78206685      0.17191884      7.40725200
H           5.26093749     -0.64079706      7.81813879
H           5.10950907     -1.58460837      5.57772287
H           6.69511233     -0.92347312      5.15188362
H           5.84870141      1.36067598      5.45732039
H           4.24866782      0.73054843      5.88718496
H           5.59168641      0.03267860      3.26075495
H           4.62799550      1.50866220      3.44208776
H           2.59643623      0.27999259      3.83069186
H           2.41796110     -1.96806889      3.01279397
H           5.47507433     -2.01033064      3.18338826
H           4.62611310     -2.45089738      1.70543150
H           4.92573628     -4.55971600      2.66212347
H           3.76559789     -5.33650472      4.57900292
H           1.93285383     -3.60835104      5.21566872
H           3.22980516     -2.40418317      5.25333411
H           4.42538694     -3.75278884      6.94609555
H           3.09910688     -4.93071994      6.93778048
H           1.51890382     -3.12540265      7.57849327
H           2.86953010     -1.98015260      7.65183607
H           2.69222717     -4.50308069      9.33625285
H           2.15528437     -2.90650206      9.88826059
H           4.44822787     -2.02424491      9.45840765
H           4.98551125     -3.67004836      9.08440580
H           3.72359613     -2.85760139     11.72478951
H           5.47431260     -2.94105410     11.43671570
H           5.25100266     -5.33511711     10.83640301
H           3.52489258     -5.27255638     11.26755285
H           6.59221142     -4.41188974     12.55568790
          52
 Energy =    -62.35857513 a.u.  #Cluster:  174
C           6.24396552     -3.52711272     -2.00688495
C           6.57063671     -2.51107527     -0.92383845
C           6.86802844     -3.19704306      0.40066404
C           7.19450204     -2.18584296      1.48793871
C           7.48481410     -2.88056345      2.81451793
C           7.83036007     -1.88678391      3.87928372
C           7.24541448     -1.75395269      5.05543203
C           6.13814335     -2.60927625      5.59701782
C           6.60417481     -3.39704978      6.78929098
C           5.92565735     -3.58436259      7.90573199
C           4.56238520     -3.04731768      8.21617585
C           4.46456121     -2.57784412      9.66228987
C           3.07038190     -2.06041997      9.97788939
C           2.95279569     -1.62968785     11.43169403
C           1.55372751     -1.11315722     11.74248057
C           1.35433940     -0.77813153     13.22365841
C           0.69173945     -1.91006608     14.00878157
C           1.64903648     -3.05608710     14.28946383
O           2.83898120     -2.96154188     14.05849261
O           1.13417611     -4.12962752     14.79501652
H           6.03209054     -3.02604268     -2.95032026
H           5.37271229     -4.11162511     -1.71110842
H           7.08906153     -4.20173307     -2.14440731
H           5.72494765     -1.83421157     -0.79169330
H           7.44052012     -1.92463209     -1.22410093
H           7.71553763     -3.87397864      0.27529240
H           5.99923877     -3.78327437      0.70681922
H           6.34863912     -1.50713076      1.61153884
H           8.06785501     -1.60382544      1.18779854
H           8.32680160     -3.56208230      2.66804084
H           6.61269367     -3.46887312      3.10341315
H           8.63525724     -1.21300180      3.59738234
H           7.58535234     -0.98649394      5.74490651
H           5.79444068     -3.30475464      4.82765100
H           5.29646468     -1.97439951      5.88172794
H           7.58891442     -3.83889109      6.66855697
H           6.35200467     -4.18424151      8.70517091
H           3.81906527     -3.83387920      8.05837890
H           4.32018908     -2.21485069      7.55315122
H           5.19109093     -1.78239677      9.83728989
H           4.69604122     -3.41225111     10.32711136
H           2.34195705     -2.84913566      9.77827525
H           2.84550213     -1.21052024      9.33031415
H           3.67931009     -0.83994393     11.63227320
H           3.18513331     -2.47867483     12.07774690
H           0.82139787     -1.86451766     11.44037502
H           1.38609231     -0.21901742     11.13993155
H           0.73218049      0.11277969     13.30842728
H           2.32673088     -0.56625875     13.67431981
H          -0.17244944     -2.28457918     13.45866351
H           0.34037427     -1.52862113     14.96878097
H           0.18473628     -4.05437348     14.92666808
          52
 Energy =    -62.35854652 a.u.  #Cluster:  175
C           9.16883677     -2.61125936      4.94778252
C           7.99584767     -2.31127721      5.86973885
C           6.70940817     -2.06427277      5.09070109
C           6.73605701     -0.74518074      4.33077958
C           5.41061772     -0.49841963      3.61037702
C           4.28960462     -0.36020373      4.59451058
C           3.19447339     -1.09704255      4.62520378
C           2.88635236     -2.21035095      3.65356065
C           3.77507770     -3.41013100      3.87411854
C           3.74396448     -4.16551525      4.95679474
C           2.85653134     -3.92717406      6.13864217
C           3.63717103     -3.24725172      7.26210320
C           2.75001238     -2.96246397      8.46213974
C           3.53362178     -2.25167848      9.55479788
C           2.66988764     -1.87613652     10.75449874
C           2.09762145     -3.08157706     11.49668000
C           3.18024420     -3.97664203     12.11200439
C           3.99139820     -3.16889328     13.10698506
O           3.64458842     -3.07599912     14.27026275
O           5.03198014     -2.54621152     12.65599574
H           8.93817485     -3.48010081      4.33096115
H          10.06420681     -2.81878611      5.53205297
H           9.36430868     -1.75974075      4.29683675
H           8.22166894     -1.42814483      6.46953483
H           7.84928619     -3.15905645      6.54028378
H           5.87030557     -2.04491185      5.78807374
H           6.55454064     -2.88299646      4.38541786
H           7.54390108     -0.75847731      3.59914538
H           6.91407955      0.06892587      5.03591292
H           5.21873688     -1.32623816      2.92754663
H           5.49385941      0.42319915      3.02982312
H           4.44595990      0.41765294      5.33646134
H           2.44777382     -0.93114778      5.39383093
H           3.02256189     -1.84788511      2.63416065
H           1.84454359     -2.50962497      3.77891355
H           4.47910038     -3.62416401      3.07789488
H           4.42911379     -5.00087536      5.06261304
H           2.46727993     -4.87584860      6.51319514
H           2.01681381     -3.28837667      5.86027882
H           4.04718165     -2.30570689      6.89241034
H           4.46385686     -3.89054112      7.56783018
H           2.35235399     -3.90524914      8.84039760
H           1.91508847     -2.33219743      8.14915853
H           3.96470596     -1.34149894      9.13406318
H           4.35385698     -2.89356492      9.88160897
H           1.84117011     -1.25887469     10.40369845
H           3.27293469     -1.28582277     11.44654826
H           1.49229510     -3.67442491     10.80989527
H           1.45148295     -2.72350925     12.30027021
H           3.82063603     -4.36942161     11.32353719
H           2.69680424     -4.80495648     12.62976800
H           5.19703553     -2.72383178     11.72563363
          52
 Energy =    -62.35854087 a.u.  #Cluster:  176
C          11.40127916     -3.02130051      4.90319802
C          10.16051398     -2.84084073      5.76323974
C           9.00780512     -2.26836736      4.95223164
C           7.76659803     -2.09823755      5.81491647
C           6.59944176     -1.50490577      5.02191441
C           6.15888653     -2.43911221      3.93270950
C           5.28884244     -3.42096610      4.08596278
C           4.59397037     -3.76044594      5.37401276
C           5.29541960     -4.89835944      6.06269746
C           5.77577292     -4.88666106      7.29280517
C           5.67629857     -3.75639574      8.27232031
C           4.57827424     -4.02444965      9.30308659
C           3.20798516     -4.05949547      8.64081182
C           2.08521829     -4.27371206      9.65119106
C           1.83740613     -3.05254938     10.53145202
C           1.21579710     -1.90210517      9.75385807
C           0.95658366     -0.69704174     10.65469747
C           0.40953198      0.45462415      9.83156318
O          -0.73047627      0.85362367      9.97673287
O           1.20773159      0.96848383      8.95306796
H          11.70650704     -2.05878444      4.49258223
H          11.18118744     -3.70051068      4.07951033
H          12.21955882     -3.43160214      5.49320525
H          10.38435094     -2.16489641      6.59018030
H           9.85911498     -3.80507916      6.17593251
H           8.78626368     -2.94164982      4.12218181
H           9.29924232     -1.29848568      4.54404214
H           8.00456191     -1.44017234      6.65187753
H           7.47257166     -3.07059798      6.21148250
H           6.91912516     -0.55537070      4.59063254
H           5.77228232     -1.31965219      5.70895725
H           6.63611301     -2.28524618      2.97014418
H           5.05312983     -4.07951069      3.25598734
H           3.56706476     -4.06515533      5.15952429
H           4.56622386     -2.88878682      6.02781095
H           5.40892834     -5.78152944      5.44069497
H           6.25642975     -5.77635736      7.68983682
H           5.44424630     -2.82383457      7.75711285
H           6.63063726     -3.64160696      8.78820650
H           4.59928354     -3.23609017     10.05571388
H           4.76798846     -4.98132892      9.79249132
H           3.18949633     -4.87234183      7.91320542
H           3.04719581     -3.12071685      8.10833395
H           2.34751398     -5.12561236     10.28078237
H           1.16130199     -4.50585043      9.11870874
H           2.77909201     -2.71822564     10.96992983
H           1.16075132     -3.32752551     11.34223752
H           0.27468580     -2.23450650      9.31130877
H           1.89031055     -1.59295325      8.95298270
H           1.89861243     -0.40320262     11.11905535
H           0.23922208     -0.96655714     11.43053621
H           2.07395410      0.55117541      8.95078815
          52
 Energy =    -62.35852013 a.u.  #Cluster:  177
C           7.21956051     -5.40784002     -0.49396033
C           7.76609723     -4.40181253      0.50665341
C           6.78064679     -3.26651396      0.73786732
C           7.32179192     -2.26042822      1.74022573
C           6.32245038     -1.13006571      1.98083258
C           6.86196271     -0.14995175      2.97601453
C           6.55585873     -0.11139210      4.26020941
C           5.60208256     -1.04415708      4.95384231
C           6.35948168     -2.18220437      5.58060013
C           6.44042525     -2.45450312      6.86932030
C           5.75321840     -1.72822953      7.98341582
C           4.89814678     -2.68239359      8.81166333
C           4.20918668     -1.95052909      9.95186678
C           3.35036732     -2.89331179     10.77989181
C           2.65507535     -2.16016660     11.91628914
C           1.79403817     -3.10358429     12.74070201
C           1.08917158     -2.37141256     13.88009501
C           0.19652106     -3.33558500     14.63952447
O           0.44626240     -3.66362275     15.78410674
O          -0.82246119     -3.80892176     13.99892979
H           7.93194533     -6.21630731     -0.65172784
H           7.02771128     -4.91204588     -1.44557135
H           6.28438481     -5.82554848     -0.12092450
H           8.70421664     -3.98817293      0.13304306
H           7.96149415     -4.90158378      1.45685329
H           5.84057802     -3.67530382      1.11390699
H           6.58374372     -2.75938042     -0.20877845
H           8.25675720     -1.84212628      1.36331656
H           7.52150871     -2.76902581      2.68533276
H           5.38913912     -1.56598825      2.34165936
H           6.13048268     -0.62931673      1.03001693
H           7.59444084      0.54310219      2.57257618
H           7.03571715      0.61033771      4.91392122
H           4.89512140     -1.45318947      4.22851253
H           5.04529343     -0.49787963      5.71560375
H           6.90055703     -2.79004528      4.86074999
H           7.03069322     -3.30318312      7.20490742
H           5.11711796     -0.93322683      7.59197346
H           6.50209501     -1.27904917      8.64073972
H           5.53232246     -3.47106107      9.22070424
H           4.14198438     -3.13996450      8.17115846
H           3.57930381     -1.15876813      9.54129713
H           4.96452684     -1.49374682     10.59451269
H           3.98029629     -3.68324617     11.19366618
H           2.59797112     -3.35231769     10.13544088
H           2.02674108     -1.36906619     11.50216766
H           3.40688043     -1.70249202     12.56235779
H           2.42362945     -3.89510746     13.15194373
H           1.03876942     -3.55585421     12.09415606
H           0.48757327     -1.56687546     13.45569035
H           1.83194984     -1.94935322     14.55785609
H          -0.89236631     -3.46240261     13.10486352
          52
 Energy =    -62.35851641 a.u.  #Cluster:  178
C           9.80109204     -3.70757779      6.33230000
C          10.05748917     -2.33639024      5.72288497
C           8.92308590     -1.90526919      4.79997419
C           7.65183358     -1.58889695      5.57536243
C           6.51262771     -1.17112016      4.64249751
C           6.17698453     -2.26964077      3.67299923
C           5.47407327     -3.34721771      3.97059660
C           4.89814743     -3.65730154      5.32160681
C           5.69376881     -4.74270463      5.99243243
C           6.15870345     -4.71825719      7.22799683
C           5.94680407     -3.62580274      8.23171951
C           4.87884383     -4.02476289      9.25141117
C           3.52058621     -4.18121124      8.58172478
C           2.42218208     -4.52916775      9.58165517
C           2.05182992     -3.35949557     10.48840458
C           1.31960717     -2.25929457      9.73477108
C           0.94105442     -1.10671870     10.66168270
C           0.27889986      0.00138272      9.86367966
O          -0.89549506      0.27938071     10.01677549
O           1.01947439      0.61276591      8.99731866
H           9.65908723     -4.44193772      5.53914372
H           8.90663645     -3.68436980      6.95374166
H          10.64685391     -4.00979538      6.94825867
H          10.98771871     -2.37276765      5.15455940
H          10.16518301     -1.59992060      6.52082588
H           8.72264320     -2.70726520      4.08686177
H           9.22472455     -1.01523688      4.24513964
H           7.85500719     -0.78226953      6.28121449
H           7.33911636     -2.46824037      6.13648281
H           6.81569450     -0.27660476      4.09750243
H           5.63737587     -0.93419095      5.24999257
H           6.57936643     -2.14704895      2.67266663
H           5.30059401     -4.11431218      3.22219997
H           3.87038706     -4.00958835      5.19960954
H           4.88450813     -2.76217401      5.94301393
H           5.88676279     -5.59949429      5.35323186
H           6.71281816     -5.57068716      7.61064608
H           5.62318232     -2.71023022      7.73552974
H           6.88447208     -3.42812852      8.75303871
H           4.81928415     -3.25544808     10.02145919
H           5.16176057     -4.96884180      9.72019894
H           3.58518258     -4.97549182      7.83645843
H           3.26814134     -3.25146599      8.06928760
H           2.76640779     -5.36510180     10.19291829
H           1.52729144     -4.83968316      9.03962014
H           2.95454226     -2.94293310     10.93828044
H           1.40458906     -3.71934902     11.28992917
H           0.41655664     -2.67352927      9.28205458
H           1.96062674     -1.86660932      8.94304951
H           1.84913583     -0.72933091     11.13323068
H           0.25573439     -1.46452146     11.43077647
H           1.92359889      0.28576270      8.98642987
          52
 Energy =    -62.35847848 a.u.  #Cluster:  179
C           8.66356317     -3.58709870      6.37862372
C           7.38600717     -3.09228233      7.04058784
C           6.36532172     -2.60258677      6.02023428
C           6.79827542     -1.31017918      5.34205419
C           5.74492154     -0.83007548      4.34440324
C           4.46864863     -0.47253651      5.04233424
C           3.27389981     -0.96125245      4.76444255
C           2.99549010     -1.97740232      3.68364539
C           3.54283392     -3.34039169      4.03211827
C           3.10863645     -4.07731359      5.03826718
C           2.05437208     -3.65091602      6.01260909
C           2.71162843     -3.09899903      7.27747540
C           1.67681515     -2.61369755      8.28179196
C           2.28421769     -1.76975601      9.40242724
C           2.71983019     -2.56749755     10.62969949
C           3.81866752     -3.59532315     10.37475127
C           5.11305894     -2.97619142      9.83570002
C           5.66962350     -1.99610875     10.84978804
O           6.43068259     -2.36534843     11.72554986
O           5.27097270     -0.76828426     10.76857328
H           9.14789839     -2.77486892      5.83765907
H           8.42701479     -4.38638530      5.67599879
H           9.35379156     -3.96805287      7.13000504
H           7.62216299     -2.27570133      7.72455190
H           6.94852778     -3.90961613      7.61489413
H           5.41577687     -2.42726427      6.52824753
H           6.21622877     -3.37426825      5.26241593
H           7.73967756     -1.46999206      4.81634585
H           6.94668113     -0.54045875      6.10172169
H           5.56997415     -1.61502382      3.60839911
H           6.12872707      0.05360041      3.82910199
H           4.59027450      0.24983512      5.84443134
H           2.40988705     -0.64510129      5.33827701
H           3.44452008     -1.64138817      2.74843947
H           1.91609782     -2.05351316      3.54197856
H           4.34609163     -3.69889232      3.39830375
H           3.56120356     -5.04153819      5.24736785
H           1.42668884     -4.50023891      6.28763428
H           1.42509493     -2.87374100      5.57550471
H           3.35013813     -2.25872757      7.00093831
H           3.33474255     -3.87828848      7.71345551
H           1.15001122     -3.46770362      8.71051953
H           0.95464780     -2.00299292      7.73654498
H           1.54477765     -1.04044416      9.73543532
H           3.13913340     -1.21954053      9.00415160
H           1.84827115     -3.08971834     11.02811072
H           3.07068193     -1.85921106     11.38280850
H           3.45777318     -4.34458277      9.66980086
H           4.04676122     -4.09923971     11.31597593
H           4.91398003     -2.47547441      8.88995646
H           5.83815344     -3.77320307      9.67248534
H           4.68773687     -0.61591735     10.01927118
          52
 Energy =    -62.35833858 a.u.  #Cluster:  180
C           4.99355551      0.19582381      4.37166581
C           5.80054307     -0.88760872      3.67027417
C           6.92133878     -1.42827276      4.55393803
C           6.40311146     -2.24692527      5.73222084
C           5.83914058     -3.60413327      5.30101423
C           6.92586636     -4.54835491      4.87393989
C           7.61195544     -5.31685823      5.70016735
C           7.38681714     -5.39089709      7.18684534
C           6.51813059     -6.57093102      7.52678531
C           5.33977273     -6.52771197      8.12016725
C           4.60794150     -5.30063840      8.56836396
C           3.25761104     -5.19357542      7.86189626
C           2.54237033     -3.89215296      8.20535527
C           3.18458113     -2.70221097      7.50525369
C           2.47078097     -1.39116092      7.80859405
C           2.70110643     -0.93628455      9.24156927
C           2.02823379      0.40674859      9.51493701
C           2.23949416      0.80057790     10.96504033
O           2.94279937      1.74526086     11.26985524
O           1.65861445      0.06429999     11.85574864
H           5.65425500      1.00672030      4.67889832
H           4.50104345     -0.20965397      5.25521905
H           4.23338013      0.59229369      3.70016726
H           6.23784674     -0.46806753      2.76366028
H           5.13559029     -1.70364561      3.38445020
H           7.49724355     -0.58292354      4.93451564
H           7.58315439     -2.05460214      3.95406882
H           5.62155747     -1.68561956      6.24411086
H           7.21561507     -2.42065318      6.43841772
H           5.13461339     -3.45483257      4.48250684
H           5.29670497     -4.03144904      6.14288101
H           7.15113213     -4.55343830      3.81232481
H           8.37631509     -5.98831082      5.32234913
H           6.92785179     -4.46930758      7.54154545
H           8.35186911     -5.51063742      7.68406700
H           6.93886240     -7.52480973      7.22163937
H           4.79422369     -7.44990015      8.30250572
H           5.19569868     -4.40913462      8.35098201
H           4.43428015     -5.34749737      9.64608031
H           2.64070742     -6.04378158      8.15595430
H           3.41666927     -5.23167020      6.78271303
H           2.57327016     -3.74653449      9.28616319
H           1.49891233     -3.95743523      7.89225894
H           3.16524893     -2.88352235      6.42965462
H           4.22499734     -2.61284389      7.82017984
H           1.39980999     -1.51540324      7.63728613
H           2.84334859     -0.61635719      7.13589660
H           3.77471971     -0.84631840      9.41911643
H           2.29135761     -1.67529352      9.93255256
H           0.96189110      0.30922452      9.30849858
H           2.45547973      1.16891486      8.86236891
H           1.13854356     -0.64543677     11.46824759
          52
 Energy =    -62.35824106 a.u.  #Cluster:  181
C           6.96672680     -2.61163105      7.64193396
C           6.43904702     -1.20877417      7.38883391
C           5.92909867     -1.06317203      5.96330606
C           5.46137787      0.35713192      5.68559307
C           5.03848919      0.53777937      4.22532099
C           3.70890440     -0.09533358      3.94152317
C           3.50470901     -1.26191908      3.35373259
C           4.56709831     -2.18755458      2.85276465
C           4.48595631     -3.61281975      3.33639963
C           3.79533463     -4.12781185      4.33710421
C           2.87340670     -3.44432110      5.30038661
C           3.13425817     -3.89794907      6.73179627
C           2.13011708     -3.27201085      7.68835476
C           2.47583292     -3.56346258      9.14472205
C           3.62068163     -2.68282130      9.62613279
C           4.06611321     -3.03298080     11.04001172
C           4.83425310     -4.35295608     11.08691029
C           5.35640298     -4.59266225     12.49168753
O           4.92011589     -5.49190444     13.18515356
O           6.26636731     -3.77861102     12.91793704
H           6.17312610     -3.33608981      7.45879742
H           7.30595866     -2.71348373      8.67167764
H           7.79730501     -2.82171160      6.96813444
H           7.23657001     -0.48320715      7.55758961
H           5.62331874     -0.99677630      8.08121370
H           5.10531361     -1.76000127      5.80554106
H           6.73324040     -1.31399961      5.26837174
H           6.28280223      1.04051899      5.90586155
H           4.62175712      0.59884381      6.33947219
H           5.81154982      0.10284691      3.59015897
H           4.97014553      1.60498443      4.00877402
H           2.85797406      0.49155912      4.27522702
H           2.49109818     -1.60484665      3.17041194
H           5.55465255     -1.80239830      3.11865402
H           4.51519526     -2.21422376      1.75981224
H           5.11856440     -4.27624443      2.75230917
H           3.87933968     -5.19544895      4.52882372
H           1.83870477     -3.68864102      5.04398939
H           2.99433876     -2.36336125      5.25659671
H           4.14449951     -3.59999263      7.01603803
H           3.06313973     -4.98544385      6.79116704
H           1.13845443     -3.66346518      7.45638087
H           2.12014601     -2.19065494      7.53698264
H           2.75649838     -4.61395294      9.23577002
H           1.60446143     -3.38016002      9.77528445
H           3.29639265     -1.64127855      9.59172884
H           4.47238388     -2.80103892      8.95599456
H           3.18927300     -3.09856000     11.68687368
H           4.72410696     -2.24664297     11.41529893
H           5.67088209     -4.29079208     10.38974412
H           4.18215930     -5.17714934     10.79808799
H           6.51093665     -3.11971965     12.26179818
          52
 Energy =    -62.35819240 a.u.  #Cluster:  182
C           4.76820613      2.63915999      2.56469674
C           5.43944037      1.30082488      2.83067920
C           6.94724233      1.40382413      2.64911049
C           7.64206680      0.06337204      2.85222567
C           7.63366493     -0.36838924      4.31980460
C           8.29818058     -1.70330959      4.47277628
C           7.66319508     -2.85599927      4.36828182
C           6.18244449     -2.98263451      4.13377073
C           5.69878890     -4.38177978      4.35451391
C           4.69877729     -4.74993276      5.13330617
C           3.84187208     -3.85421535      5.97381559
C           3.69454648     -4.40940484      7.38609131
C           2.80882776     -3.51807284      8.24138647
C           2.63312090     -4.09168472      9.63891122
C           1.75312948     -3.19660594     10.49954174
C           1.50261669     -3.79858303     11.87558463
C           2.76792430     -3.87903681     12.72232308
C           2.41166323     -4.20316148     14.16462864
O           1.26580523     -4.10312306     14.55997145
O           3.37671877     -4.57606179     14.93930870
H           5.15462773      3.38743389      3.25669236
H           3.68991071      2.55858545      2.69399418
H           4.98122583      2.96070914      1.54513336
H           5.04808173      0.55318517      2.13869153
H           5.21411317      0.98191531      3.84891327
H           7.34839995      2.12610907      3.36272555
H           7.15139568      1.76370337      1.63904570
H           8.67775445      0.13551021      2.51720351
H           7.13139184     -0.69433660      2.25519633
H           6.59995447     -0.43097251      4.66388821
H           8.15574654      0.38618381      4.91003461
H           9.37255000     -1.67668531      4.62344077
H           8.19913642     -3.79633480      4.44732050
H           5.96798146     -2.69178274      3.10057904
H           5.65023492     -2.28562934      4.78463323
H           6.25798582     -5.13038870      3.80015903
H           4.43511020     -5.80115851      5.21421693
H           2.84633040     -3.77997478      5.52787109
H           4.26817185     -2.85139290      6.02693045
H           4.67915489     -4.48752361      7.85063138
H           3.25454633     -5.40715639      7.33422055
H           1.83034834     -3.42197522      7.76634979
H           3.25793700     -2.52554343      8.31317373
H           3.61456356     -4.19788568     10.10375014
H           2.17596559     -5.08055620      9.56400360
H           0.79955587     -3.05132058      9.98850010
H           2.23751284     -2.22504175     10.61498095
H           1.08752321     -4.80131675     11.75580927
H           0.77534224     -3.18811919     12.41746269
H           3.28054212     -2.91557031     12.70116682
H           3.44760595     -4.63577931     12.33154710
H           4.22355680     -4.60399768     14.48509713
          52
 Energy =    -62.35817947 a.u.  #Cluster:  183
C           5.34401929     -3.36802258     -1.65123231
C           6.06998743     -2.54159010     -0.60149796
C           6.20590346     -3.30952750      0.70431138
C           6.93098602     -2.48745782      1.75766538
C           7.06014794     -3.26098266      3.06614575
C           7.79563041     -2.45859245      4.09368009
C           7.37025118     -2.14134957      5.30226525
C           6.07189750     -2.56625284      5.92966042
C           6.33600045     -3.45080041      7.11563289
C           6.19857036     -3.10965646      8.38342014
C           5.70171187     -1.79799451      8.90696992
C           4.61917954     -2.00057787      9.96142500
C           4.13007068     -0.66494804     10.50177193
C           3.07360829     -0.83960118     11.58676193
C           1.73656873     -1.29645505     11.01346008
C           0.71671941     -1.63057492     12.10875703
C           0.50801913     -3.13525214     12.27189842
C           1.73046073     -3.81614166     12.86485357
O           2.65022122     -3.17693796     13.33649162
O           1.73724645     -5.11008347     12.84749933
H           5.25115053     -2.80908952     -2.58128418
H           4.34834097     -3.62663931     -1.29074257
H           5.89788750     -4.28719131     -1.84243706
H           5.51626813     -1.61978211     -0.41591660
H           7.06487900     -2.28097356     -0.96623091
H           6.76157701     -4.23223248      0.52528335
H           5.21257533     -3.57010594      1.07521140
H           6.37667395     -1.56414947      1.93562081
H           7.92696589     -2.23130125      1.39158808
H           7.60900396     -4.18486129      2.86610476
H           6.06279635     -3.52344861      3.42166371
H           8.76285244     -2.09991756      3.75135438
H           7.99633320     -1.54354369      5.95848991
H           5.46587114     -3.10998746      5.20337144
H           5.52385335     -1.67625001      6.24515418
H           6.71114235     -4.43641604      6.85617209
H           6.43902837     -3.82556904      9.16499109
H           5.29820903     -1.18848234      8.09691704
H           6.53155427     -1.25292140      9.36483643
H           5.02442965     -2.59482611     10.78264186
H           3.78522258     -2.54475797      9.51600956
H           3.70887566     -0.07896290      9.68241273
H           4.98511397     -0.12435041     10.91158306
H           2.92310709      0.10780430     12.10641939
H           3.42521591     -1.57807335     12.31078785
H           1.89206178     -2.17848709     10.39024636
H           1.35045929     -0.50027965     10.37557455
H          -0.24100076     -1.16756478     11.87221259
H           1.07036097     -1.22589093     13.05950348
H           0.27838630     -3.58241998     11.30395872
H          -0.33654658     -3.31739623     12.93819590
H           0.94172799     -5.47569744     12.45002978
          52
 Energy =    -62.35800801 a.u.  #Cluster:  184
C           4.66409913      2.95740522      3.94867959
C           4.96585446      1.49912828      3.64023070
C           5.71734742      1.36806558      2.32288220
C           5.99417083     -0.08576705      1.95993137
C           7.03495637     -0.71429619      2.88159492
C           7.33591438     -2.12233845      2.46949540
C           7.40178375     -3.17277904      3.26608423
C           7.19874240     -3.16727529      4.74876227
C           6.40526704     -4.34937385      5.22809512
C           6.05482556     -4.49933538      6.49137846
C           6.41908935     -3.50730014      7.55770445
C           5.76283101     -3.82173099      8.89394873
C           4.25544902     -3.62068915      8.83834987
C           3.60463105     -3.96884779     10.16813986
C           2.09709884     -3.76652825     10.11722697
C           1.42132833     -4.19462098     11.41282393
C           1.80287557     -3.31155804     12.59554776
C           0.89361874     -3.60182936     13.77912571
O          -0.12004116     -4.25920149     13.63900138
O           1.24450031     -3.11334366     14.92325272
H           5.59635515      3.51787911      4.01868047
H           4.12486048      3.04543699      4.89069824
H           4.05718527      3.38402267      3.14998360
H           4.03110292      0.93983597      3.57461187
H           5.56603161      1.07838349      4.44763912
H           6.66599335      1.90377272      2.39498885
H           5.11859276      1.82733416      1.53424304
H           6.36300937     -0.13876560      0.93427602
H           5.06373060     -0.65256615      2.02594042
H           6.67403366     -0.69188376      3.91031329
H           7.94960798     -0.11762691      2.82686733
H           7.50443499     -2.23816306      1.40223149
H           7.62808611     -4.15271282      2.85531509
H           6.69631106     -2.24823572      5.06221148
H           8.17422186     -3.18086830      5.24724771
H           6.14259442     -5.08307167      4.47373434
H           5.49204205     -5.36599126      6.82150536
H           6.11586578     -2.50670002      7.23671189
H           7.50633974     -3.49849408      7.67314809
H           6.17511108     -3.17074976      9.66624390
H           5.97305681     -4.85850702      9.16324837
H           3.83092753     -4.25568938      8.05848686
H           4.03874244     -2.57868420      8.59422259
H           4.03383968     -3.33841790     10.94850255
H           3.81939081     -5.01234582     10.40792024
H           1.69568542     -4.35253748      9.28831391
H           1.88478077     -2.71171545      9.93236204
H           1.69686404     -5.22768332     11.63424928
H           0.33559073     -4.14666566     11.29489202
H           1.68710050     -2.26218832     12.31840249
H           2.84144267     -3.47612550     12.88138616
H           2.06546521     -2.61547655     14.87439122
          52
 Energy =    -62.35797287 a.u.  #Cluster:  185
C           6.99364202     -5.50724822     -0.37908147
C           7.57879475     -4.51289525      0.61130062
C           6.62468533     -3.35354570      0.85450230
C           7.20532558     -2.35894824      1.84621153
C           6.23754882     -1.20439912      2.10012073
C           6.81948932     -0.23221303      3.07884296
C           6.51689557     -0.15778218      4.36222539
C           5.52435232     -1.03734604      5.07200511
C           6.23005709     -2.21762500      5.68103626
C           6.36728894     -2.46837756      6.96934338
C           5.80474823     -1.66866652      8.10300772
C           4.98149412     -2.54844302      9.03833602
C           4.43077663     -1.74387361     10.20443343
C           3.60708908     -2.61458485     11.14038259
C           3.05711254     -1.80537560     12.30576163
C           2.26202928     -2.66702165     13.27899898
C           0.94508886     -3.15643427     12.67813535
C           0.16025962     -3.92517040     13.72583852
O          -0.01530127     -5.12523286     13.63026979
O          -0.28553394     -3.24583747     14.73171616
H           7.68360781     -6.33340747     -0.54467551
H           6.80085124     -5.00896853     -1.32919663
H           6.05374972     -5.90093443      0.00795716
H           8.52110618     -4.12279203      0.22318846
H           7.77591047     -5.01555791      1.55961595
H           5.68071462     -3.73858321      1.24551858
H           6.42601217     -2.84367555     -0.09030226
H           8.14388630     -1.96370397      1.45363179
H           7.40784135     -2.87067118      2.78901820
H           5.30113443     -1.61581833      2.48078071
H           6.03988556     -0.70372287      1.15028172
H           7.58048780      0.42149423      2.66257112
H           7.02915294      0.55297507      5.00315544
H           4.78190575     -1.40329379      4.35943768
H           5.01465751     -0.46288841      5.84577251
H           6.68372011     -2.87727983      4.94666591
H           6.91454856     -3.35035867      7.29170957
H           5.17397247     -0.86059820      7.73006112
H           6.62403037     -1.22886162      8.67770223
H           5.61136408     -3.35311579      9.42218272
H           4.15133582     -2.98994062      8.48400117
H           3.80355007     -0.93714128      9.81988576
H           5.26049058     -1.30235154     10.76021322
H           4.23528204     -3.42020607     11.52587302
H           2.78325757     -3.05647140     10.57765249
H           2.41195914     -1.01431957     11.91853105
H           3.89434132     -1.34405972     12.83282382
H           2.02995615     -2.08236755     14.17148513
H           2.86830123     -3.52736018     13.56903676
H           1.14084926     -3.80828305     11.82695460
H           0.37002256     -2.29061162     12.34789721
H          -0.06993196     -2.31076829     14.67265383
          52
 Energy =    -62.35794302 a.u.  #Cluster:  186
C           6.14084558      2.77450669      0.48491272
C           6.50676959      1.51484373      1.25441006
C           7.77791990      1.72461628      2.06532412
C           8.20034383      0.46437290      2.81069427
C           7.24563217      0.13225491      3.95306500
C           7.70908967     -1.07270220      4.71177504
C           6.95295965     -2.08031206      5.10560700
C           5.47356978     -2.20530019      4.87453265
C           5.07402845     -3.63703576      4.67895870
C           4.10038720     -4.26947859      5.30743929
C           3.19487853     -3.69871218      6.35377296
C           3.27656706     -4.50404206      7.64713951
C           2.34587821     -3.93343810      8.70473660
C           2.43189058     -4.71777870     10.00465937
C           1.50477046     -4.13553396     11.06187020
C           1.55131934     -4.92886809     12.36062666
C           2.89818111     -4.82035869     13.06695469
C           2.79040756     -5.35705550     14.48554247
O           1.70396797     -5.54320323     14.99959096
O           3.89684989     -5.59211197     15.11087426
H           5.98076758      3.59676694      1.18233102
H           5.23226713      2.61817456     -0.09475273
H           6.95306532      3.04098104     -0.19149610
H           6.66235335      0.69256347      0.55404661
H           5.68588075      1.25138843      1.92211273
H           7.61565625      2.52752298      2.78720554
H           8.57764308      2.02512004      1.38599249
H           9.19993303      0.60682265      3.22466260
H           8.22899172     -0.37138117      2.10924417
H           6.24426561     -0.03770883      3.55587839
H           7.20350957      0.99093998      4.62884850
H           8.77261230     -1.06975791      4.93444110
H           7.38929668     -2.90722539      5.65782249
H           5.19252190     -1.62785025      3.98995215
H           4.94125554     -1.78247046      5.73008437
H           5.67481501     -4.16326851      3.94262903
H           3.90712955     -5.31663797      5.09012852
H           2.16251271     -3.72630554      5.99611196
H           3.45753727     -2.66166756      6.56730118
H           4.30112866     -4.48278875      8.02296961
H           3.00046536     -5.54049415      7.44479976
H           1.31935574     -3.96184652      8.33374468
H           2.61597817     -2.89290932      8.89595394
H           3.46136575     -4.69193036     10.36546928
H           2.15619083     -5.75727656      9.81574369
H           0.48576281     -4.13779722     10.67059177
H           1.79804430     -3.10306089     11.26201050
H           1.34201375     -5.97857867     12.14552146
H           0.78380961     -4.55854826     13.04558037
H           3.19732563     -3.77175123     13.11714866
H           3.66656662     -5.36839197     12.52240025
H           4.67086946     -5.39336482     14.57643437
          52
 Energy =    -62.35788659 a.u.  #Cluster:  187
C           8.06294139     -2.87286473      7.12127450
C           7.17201507     -1.64744568      6.98142497
C           6.16956374     -1.80393875      5.84439352
C           6.82995740     -1.70369423      4.47576497
C           5.80293249     -1.84975863      3.35385535
C           4.77246636     -0.76520877      3.43072018
C           3.46141737     -0.92411574      3.41330511
C           2.73858944     -2.24280536      3.26774666
C           3.16192483     -3.29338456      4.26217154
C           3.07610386     -3.13648840      5.57035230
C           2.56707498     -1.89429692      6.24253946
C           2.84666870     -1.90705226      7.73956604
C           1.95598167     -2.90935470      8.46218163
C           2.31894949     -3.05614937      9.94226953
C           3.15009537     -4.30615511     10.22264321
C           4.51375899     -4.31966929      9.53453787
C           5.44847087     -3.22096732     10.03459900
C           5.82014530     -3.42815945     11.49240443
O           5.34668833     -4.34000350     12.14341383
O           6.66199312     -2.58773938     12.00027906
H           8.64399172     -3.02349959      6.21203616
H           7.44583012     -3.75447479      7.29556916
H           8.74661511     -2.74850112      7.95967122
H           7.78839506     -0.76689427      6.79357799
H           6.62990251     -1.50093268      7.91612833
H           5.41492881     -1.01981052      5.92388797
H           5.67447927     -2.77214544      5.93774962
H           7.58508196     -2.48321043      4.37397558
H           7.31636955     -0.73020513      4.38830510
H           5.33258862     -2.83021307      3.42446492
H           6.32093597     -1.78158325      2.39414710
H           5.19439462      0.23241411      3.51762940
H           2.81643406     -0.05391453      3.47203229
H           2.90339377     -2.62013995      2.25684560
H           1.66834299     -2.06347703      3.39150546
H           3.53193394     -4.22234413      3.84374900
H           3.38548681     -3.93124266      6.24114392
H           1.48864051     -1.80960686      6.08000090
H           3.04209567     -1.02085205      5.79183778
H           2.66794533     -0.91481040      8.15566797
H           3.89446191     -2.16259379      7.89577776
H           2.04169946     -3.88388202      7.97881068
H           0.92263796     -2.57290106      8.36541190
H           1.40663353     -3.12440346     10.53538084
H           2.86500182     -2.16829173     10.26370492
H           2.58377509     -5.17425915      9.88096226
H           3.30481681     -4.40031961     11.29954362
H           4.37515711     -4.22187983      8.45740425
H           4.98764073     -5.28336142      9.73264784
H           4.97772737     -2.24423883      9.92216885
H           6.36137211     -3.22112646      9.43944444
H           6.94665241     -1.92586514     11.36347265
          52
 Energy =    -62.35786381 a.u.  #Cluster:  188
C           7.53473150      0.31179413      2.36225432
C           8.38045123     -0.90996146      2.69104893
C           8.25375040     -1.31950363      4.15554020
C           6.85302423     -1.78790488      4.54223994
C           6.41881459     -3.04631187      3.78383416
C           7.37974908     -4.17875758      4.00610843
C           7.40103135     -4.93023368      5.09208545
C           6.45862605     -4.78575557      6.24506610
C           6.16920848     -6.08231657      6.94284506
C           5.27582668     -6.17316180      7.90982406
C           4.48368152     -4.99112777      8.38595534
C           3.49156012     -5.35532304      9.47901325
C           2.73422007     -4.13267715      9.98384825
C           1.75358740     -3.60167940      8.94623859
C           0.96836575     -2.40317337      9.46673015
C           1.84209582     -1.15984794      9.58025571
C           1.04843940      0.03634422     10.09728941
C           0.66342911     -0.16794708     11.55346431
O           0.94082578     -1.19858127     12.13769631
O           0.03262230      0.80053825     12.13260438
H           7.80078457      1.13349156      3.02746289
H           6.47670094      0.08494140      2.48811754
H           7.70534178      0.62025966      1.33180719
H           9.42632098     -0.67940120      2.48460637
H           8.08093962     -1.74009026      2.05062652
H           8.51849687     -0.46300232      4.77804018
H           8.96094476     -2.12485896      4.36040236
H           6.13424285     -0.99136053      4.34922846
H           6.84223172     -2.00762110      5.61037778
H           6.34972255     -2.82070452      2.71993773
H           5.42768051     -3.33147417      4.14254564
H           8.10783108     -4.33748385      3.21755043
H           8.13626372     -5.72158542      5.20261692
H           5.51731187     -4.34481438      5.90334213
H           6.88316620     -4.08581754      6.97304110
H           6.74102035     -6.94182391      6.61010053
H           5.07254037     -7.11298067      8.41161841
H           3.95226258     -4.55571281      7.53536046
H           5.17070443     -4.22760419      8.76298195
H           4.03595451     -5.81038841     10.30794764
H           2.77696676     -6.08328125      9.09064857
H           3.45637411     -3.35505780     10.23762132
H           2.17751168     -4.39741915     10.88453568
H           1.06036552     -4.40246480      8.68281957
H           2.29579430     -3.30230677      8.04782423
H           0.56282013     -2.64629061     10.45117093
H           0.14107597     -2.18860898      8.78837731
H           2.26367277     -0.93334758      8.59973173
H           2.66069617     -1.35614747     10.27561689
H           0.14334285      0.16339185      9.50186135
H           1.64270493      0.94665402     10.01369754
H          -0.11243089      1.54699739     11.54423554
          52
 Energy =    -62.35782519 a.u.  #Cluster:  189
C           5.23320589      3.25456584      3.34073365
C           5.31787699      1.76388890      3.05182749
C           6.35150775      1.47907290      1.97121345
C           6.42300043     -0.00169561      1.61841744
C           7.02816554     -0.82810288      2.74677347
C           7.15230765     -2.27121477      2.36275389
C           7.01483087     -3.29423031      3.18539331
C           6.71705755     -3.18530676      4.64907236
C           6.05948964     -4.41119240      5.21052353
C           5.72740809     -4.51633587      6.48333362
C           5.97895210     -3.42261595      7.48061412
C           5.38889149     -3.73639635      8.84767171
C           3.86747832     -3.72076178      8.81752791
C           3.28570897     -4.08702496     10.17422688
C           1.76426965     -4.05460519     10.15137589
C           1.16509159     -4.50726746     11.47596639
C           1.47578282     -3.54944771     12.62075540
C           0.61678903     -3.88458598     13.82994742
O          -0.35391753     -4.60938121     13.72167879
O           0.96112372     -3.35999600     14.95984844
H           6.20450123      3.61899225      3.67525125
H           4.49336907      3.45266548      4.11489044
H           4.95105750      3.78929027      2.43369750
H           4.34406098      1.40183576      2.71795551
H           5.58955765      1.23593718      3.96648003
H           7.33304118      1.81049081      2.31598663
H           6.08680268      2.04863882      1.07852139
H           7.03770978     -0.13081857      0.72601647
H           5.41659386     -0.36545367      1.40349719
H           6.41164406     -0.73660841      3.64253874
H           8.01968633     -0.42822279      2.97789378
H           7.38191568     -2.43595092      1.31403524
H           7.13156067     -4.31058753      2.82126103
H           6.07800919     -2.31665002      4.83644295
H           7.64931576     -3.00722948      5.19648896
H           5.87688681     -5.21712485      4.50781163
H           5.26274691     -5.41597485      6.87244118
H           5.54581477     -2.48983169      7.10855673
H           7.05796980     -3.26953229      7.56978540
H           5.73296397     -2.99837160      9.57366667
H           5.72742312     -4.72375939      9.16731888
H           3.50972183     -4.43521005      8.07376843
H           3.52212411     -2.72390783      8.53589688
H           3.65690594     -3.38313658     10.92078941
H           3.62006317     -5.09024895     10.44668716
H           1.41450440     -4.71109170      9.35242933
H           1.43268583     -3.03705465      9.93566709
H           1.55282282     -5.49769959     11.72256175
H           0.07796113     -4.57700830     11.38341116
H           1.25075574     -2.52756749     12.30988016
H           2.52998069     -3.59943126     12.89181935
H           1.74571951     -2.80934514     14.88622751
          52
 Energy =    -62.35773573 a.u.  #Cluster:  190
C           8.79951410     -0.10991271      2.11494723
C           8.68295997     -0.46715890      3.58968200
C           7.28079341     -0.94348362      3.95781979
C           6.86624427     -2.23437331      3.25549681
C           7.78197073     -3.41514385      3.59523660
C           7.84877199     -3.64286074      5.07775477
C           6.92529331     -4.27228097      5.78033165
C           5.67751942     -4.89119751      5.21219252
C           5.35050385     -6.17869119      5.91065415
C           4.52750951     -6.30015049      6.93670471
C           3.77990522     -5.17882807      7.58943225
C           4.50063936     -4.72531574      8.85959137
C           3.80218615     -3.54049047      9.51418959
C           2.46727274     -3.93397030     10.13292865
C           1.80607634     -2.76115141     10.84801020
C           1.28261785     -1.72054373      9.86565333
C           0.63725109     -0.54318344     10.59047877
C           1.69022308      0.27397040     11.32129876
O           2.85905822     -0.06446307     11.32096303
O           1.28368360      1.33605553     11.93583837
H           8.04183467      0.62924563      1.85403374
H           8.65490123     -0.99615970      1.49824058
H           9.78511723      0.30359391      1.90579108
H           8.91578331      0.41640138      4.18535926
H           9.40948135     -1.24325417      3.83215832
H           6.56812622     -0.16044401      3.69302236
H           7.23337081     -1.10072399      5.03662060
H           6.87005453     -2.08176355      2.17611842
H           5.85043683     -2.48554823      3.56293156
H           8.78057496     -3.22133026      3.20445918
H           7.38453255     -4.30447155      3.10255221
H           8.71038705     -3.21170770      5.57691403
H           7.02386512     -4.37741574      6.85655610
H           5.81092423     -5.07015240      4.14415427
H           4.85362319     -4.18392179      5.33858476
H           5.88191271     -7.04701429      5.53371228
H           4.38279128     -7.26938401      7.40485076
H           2.77379355     -5.51033259      7.85009153
H           3.70321206     -4.32649670      6.91175692
H           5.52054394     -4.44151608      8.59513931
H           4.53954157     -5.55578918      9.56661797
H           3.64444331     -2.76704123      8.76094391
H           4.44251936     -3.13492915     10.29969740
H           2.64096661     -4.74133727     10.84655522
H           1.79373552     -4.29670416      9.35482492
H           2.53860548     -2.29218572     11.50848044
H           0.97196619     -3.12539428     11.44980798
H           0.55831418     -2.19390967      9.20107943
H           2.11223077     -1.34156141      9.26539700
H          -0.09542901     -0.91002206     11.31052769
H           0.12240984      0.10140689      9.87757529
H           0.33633885      1.47240279     11.84408525
          52
 Energy =    -62.35770958 a.u.  #Cluster:  191
C           8.89424161     -0.19399501      2.05064437
C           8.74035418     -0.47992727      3.53743472
C           7.32478024     -0.92358745      3.89504822
C           6.91022370     -2.24047628      3.24279675
C           7.80390061     -3.41474390      3.65576309
C           7.82881373     -3.58041379      5.14786183
C           6.88589058     -4.17842234      5.85202998
C           5.65289198     -4.82380335      5.28165732
C           5.36144513     -6.12299576      5.97517248
C           4.54132181     -6.27276071      6.99966322
C           3.75888217     -5.17819265      7.65668636
C           4.45252044     -4.72339827      8.94132280
C           3.70914186     -3.57368056      9.60905797
C           2.38180922     -4.02206255     10.20647011
C           1.67749698     -2.88769639     10.94199063
C           1.13621620     -1.83723502      9.97997971
C           0.43463644     -0.70613451     10.72594769
C           1.44237663      0.12278157     11.50562619
O           2.62338904     -0.17005393     11.51388795
O           0.98408523      1.14419737     12.15194598
H           8.15110768      0.53974156      1.73784739
H           8.75358744     -1.10686698      1.47310906
H           9.88894514      0.19899726      1.84511590
H           8.96997465      0.42822602      4.09619007
H           9.45216866     -1.25130985      3.83271379
H           6.62762519     -0.14556256      3.57913308
H           7.25188759     -1.03093652      4.97848708
H           6.93952273     -2.13689002      2.15800684
H           5.88497294     -2.46650535      3.53833193
H           8.81466616     -3.24663032      3.28483691
H           7.41098175     -4.32002075      3.18947028
H           8.67704364     -3.12835480      5.65160045
H           6.95715156     -4.23862287      6.93396489
H           5.78812943     -4.99519119      4.21286245
H           4.81179834     -4.13842572      5.41436099
H           5.91884314     -6.97374909      5.59566627
H           4.42455890     -7.24798808      7.46324395
H           2.75839145     -5.53822479      7.90090461
H           3.66877652     -4.31960210      6.98875406
H           5.46518995     -4.40224606      8.69210336
H           4.51148342     -5.56430985      9.63452521
H           3.53366919     -2.79235391      8.86799305
H           4.32790915     -3.16181349     10.40843387
H           2.57441009     -4.83985522     10.90320065
H           1.72669125     -4.38760034      9.41409634
H           2.38705735     -2.41501189     11.62449646
H           0.84667991     -3.29186029     11.52253104
H           0.44239628     -2.31569691      9.28713524
H           1.96312569     -1.41106930      9.40834233
H          -0.30054564     -1.12033285     11.41717447
H          -0.08645196     -0.05705202     10.02170363
H           0.03372085      1.24686034     12.04842754
          52
 Energy =    -62.35769987 a.u.  #Cluster:  192
C           8.78205835     -3.68599077      2.40276922
C           8.30224470     -3.75058750      3.84560718
C           7.07989461     -2.87015338      4.07889290
C           7.41668134     -1.38629680      4.01870974
C           6.18011150     -0.53197915      4.29722468
C           5.68700438     -0.75788450      5.69353461
C           4.49687685     -1.20943643      6.04267662
C           3.38764682     -1.59456316      5.10141635
C           3.37542936     -3.08448488      4.89838138
C           2.49671757     -3.92260464      5.41718342
C           1.35069789     -3.52639268      6.30549448
C           1.83550980     -3.22349350      7.72521375
C           2.51070586     -4.43341075      8.35334249
C           3.06348669     -4.12967422      9.74261723
C           4.22812547     -3.13446852      9.70161396
C           3.82749589     -1.71414386     10.09811030
C           3.48742453     -1.59622220     11.58202365
C           4.72472873     -1.79326684     12.44141496
O           5.79653087     -2.08548302     11.94518488
O           4.57914594     -1.63894564     13.71684947
H           9.08456762     -2.67016391      2.15061754
H           7.97654946     -3.98952177      1.73375035
H           9.63244022     -4.35091341      2.25832662
H           9.10459035     -3.42552861      4.50988018
H           8.04898100     -4.78401111      4.08570234
H           6.66121125     -3.09255082      5.06197341
H           6.32611510     -3.09742291      3.32227833
H           7.80725469     -1.13799553      3.03188878
H           8.18056666     -1.16216130      4.76557246
H           5.40655501     -0.78798991      3.57247820
H           6.44337226      0.52069368      4.17365165
H           6.42368584     -0.53052361      6.45944520
H           4.26282873     -1.36522418      7.09115622
H           3.53663089     -1.10616190      4.13686412
H           2.43388186     -1.27045763      5.51916701
H           4.19262022     -3.45496307      4.28771068
H           2.59269154     -4.98699242      5.22866037
H           0.61971659     -4.33432423      6.34820043
H           0.86619137     -2.63331045      5.90648582
H           0.98938867     -2.92131235      8.34362941
H           2.54394468     -2.39777159      7.67851621
H           3.33346804     -4.75766743      7.71299682
H           1.78446955     -5.24533472      8.42261733
H           3.40054370     -5.06450655     10.19071820
H           2.25860322     -3.72665471     10.35940630
H           4.63389903     -3.11378781      8.68911703
H           5.02288522     -3.45990226     10.37492749
H           2.97254973     -1.40021020      9.49998383
H           4.66411832     -1.04529354      9.88543859
H           2.74213522     -2.34355587     11.85693225
H           3.06675898     -0.61177645     11.78826185
H           3.67714322     -1.40868736     13.95742870
          52
 Energy =    -62.35768730 a.u.  #Cluster:  193
C           8.60222273     -3.22293691      1.80296397
C           8.19628850     -3.55564258      3.23148211
C           7.02428189     -2.70281836      3.70361828
C           7.41683530     -1.24650010      3.91286118
C           6.22831787     -0.42674309      4.41751354
C           5.80349917     -0.89606842      5.77509360
C           4.67359851     -1.50779713      6.07806001
C           3.56642637     -1.86020834      5.12426808
C           3.47560491     -3.35177486      4.96504384
C           2.52498904     -4.11968552      5.46568411
C           1.36484832     -3.62788253      6.28528553
C           1.80077278     -3.30509501      7.71647099
C           2.36610584     -4.53156360      8.41668148
C           2.86143157     -4.21613828      9.82496476
C           4.08411281     -3.29252971      9.81930719
C           3.74860994     -1.83763631     10.14451986
C           3.33759469     -1.64511677     11.60245515
C           4.51381413     -1.87933089     12.53529609
O           5.59014349     -2.25481880     12.10992925
O           4.31140888     -1.66378905     13.79399672
H           8.93140619     -2.18654403      1.73562631
H           7.75142601     -3.36583852      1.13643075
H           9.41674738     -3.87079934      1.48211499
H           9.04470285     -3.39102281      3.89764341
H           7.91447592     -4.60823595      3.28061795
H           6.65008019     -3.10221653      4.64788512
H           6.22246828     -2.75502613      2.96434780
H           7.76812334     -0.82250231      2.97225678
H           8.22438224     -1.19403684      4.64535066
H           5.40919708     -0.52620159      3.70412433
H           6.52010790      0.62362665      4.47314967
H           6.54254956     -0.71767044      6.55155034
H           4.48795589     -1.82815638      7.09904453
H           3.75843504     -1.40766993      4.14990274
H           2.62340194     -1.47352420      5.51425232
H           4.29616553     -3.78970025      4.40544736
H           2.56525991     -5.19342460      5.31359025
H           0.58594812     -4.39021001      6.31831037
H           0.95299954     -2.72250154      5.83562826
H           0.94738230     -2.92872568      8.28194935
H           2.56246526     -2.52776833      7.67768083
H           3.20028143     -4.92527955      7.83250541
H           1.58865116     -5.29588024      8.46992485
H           3.11750894     -5.15428385     10.31759561
H           2.05067016     -3.74718025     10.38483161
H           4.54655400     -3.33239910      8.83185696
H           4.81882165     -3.63907504     10.54799090
H           2.94686498     -1.49721391      9.48988777
H           4.63378297     -1.22649206      9.95604903
H           2.53628311     -2.33830530     11.86116229
H           2.96487588     -0.63140519     11.75108335
H           3.41375715     -1.37122048     13.97584513
          52
 Energy =    -62.35768708 a.u.  #Cluster:  194
C           8.89996191     -0.29000736      1.82065169
C           8.73861673     -0.49607537      3.31981974
C           7.32366600     -0.92930120      3.69234596
C           6.92493755     -2.28608028      3.11655465
C           7.81894120     -3.42754756      3.61244191
C           7.82085090     -3.50470660      5.11202894
C           6.87354980     -4.07059046      5.83656232
C           5.65649730     -4.76461142      5.28983877
C           5.40451726     -6.05115270      6.02201525
C           4.59414596     -6.19465438      7.05506095
C           3.78432074     -5.10511291      7.68672469
C           4.46777837     -4.60194277      8.95865626
C           3.68539922     -3.46998737      9.61213024
C           2.38243067     -3.95968967     10.23050179
C           1.64461546     -2.84360346     10.96108035
C           1.05558209     -1.82405871      9.99390060
C           0.31939320     -0.71211367     10.73539656
C           1.30260285      0.16317002     11.49548491
O           2.49291910     -0.08916586     11.50171572
O           0.81326675      1.17902818     12.12770520
H           8.15544672      0.42231708      1.46461582
H           8.76659160     -1.23329679      1.29235149
H           9.89410744      0.09599858      1.59976470
H           8.95889664      0.44258462      3.82978255
H           9.45349408     -1.24551588      3.66070702
H           6.62323603     -0.17716846      3.32511375
H           7.24248322     -0.97257822      4.77963385
H           6.96849590     -2.24879818      2.02793071
H           5.89699253     -2.50007266      3.41172850
H           8.83466028     -3.27423936      3.24864819
H           7.43969157     -4.36150963      3.19404876
H           8.65615744     -3.01393858      5.60098906
H           6.92987595     -4.06665331      6.92110908
H           5.79182249     -4.96348307      4.22598888
H           4.79745934     -4.09919718      5.40781663
H           5.98361456     -6.89648919      5.66345963
H           4.50714876     -7.15944768      7.54625921
H           2.79418003     -5.48561408      7.94203862
H           3.67030648     -4.26563783      6.99852617
H           5.46621366     -4.24754093      8.69736715
H           4.56234259     -5.42796508      9.66573307
H           3.47256374     -2.70994898      8.85885038
H           4.29444075     -3.01951382     10.39804399
H           2.61338936     -4.76099427     10.93471284
H           1.73245673     -4.35928262      9.45041926
H           2.34320993     -2.33790848     11.63113740
H           0.83503274     -3.27142688     11.55454328
H           0.37337672     -2.33516416      9.31291733
H           1.86054552     -1.37360285      9.40972505
H          -0.39189884     -1.14651234     11.43913215
H          -0.23380394     -0.09128072     10.03018461
H          -0.14056767      1.24774802     12.02810322
          52
 Energy =    -62.35768337 a.u.  #Cluster:  195
C           8.56011273     -3.12732823      1.70041054
C           8.17362392     -3.51729257      3.11982000
C           7.02024411     -2.67208378      3.64821824
C           7.43574548     -1.23209893      3.91745460
C           6.26398694     -0.41885213      4.46975162
C           5.84821802     -0.93764020      5.81210702
C           4.72051859     -1.56088471      6.09937516
C           3.60809250     -1.88030501      5.14022094
C           3.49375672     -3.36751664      4.95855115
C           2.52977268     -4.12716300      5.44606679
C           1.37482483     -3.62813846      6.26866742
C           1.81066362     -3.32870845      7.70495507
C           2.35703601     -4.57100627      8.39213487
C           2.84275397     -4.28124736      9.80927090
C           4.07618510     -3.37233086      9.82864454
C           3.75434611     -1.91718482     10.16627616
C           3.32788918     -1.73616895     11.62125214
C           4.49070382     -1.99272552     12.56492668
O           5.56827758     -2.37357552     12.14755642
O           4.27550144     -1.79017063     13.82366754
H           8.90135554     -2.09301141      1.67260549
H           7.69660794     -3.23066977      1.04296692
H           9.36083465     -3.77033237      1.33776490
H           9.03484508     -3.39184228      3.77801948
H           7.87962133     -4.56765459      3.12789680
H           6.65426296     -3.10948360      4.57875812
H           6.20713761     -2.67993842      2.91953575
H           7.78374874     -0.77201482      2.99270538
H           8.25121306     -1.22312289      4.64295490
H           5.43564994     -0.47882813      3.76260400
H           6.56987281      0.62460257      4.56466771
H           6.59175172     -0.78705108      6.59013810
H           4.54026902     -1.91700236      7.10948321
H           3.80741616     -1.41567931      4.17306844
H           2.67121728     -1.48471273      5.53625444
H           4.30888464     -3.81040417      4.39488014
H           2.55326788     -5.19916197      5.27896016
H           0.58468517     -4.37922596      6.29034503
H           0.97761790     -2.71151650      5.82869674
H           0.96037017     -2.94796183      8.27219369
H           2.58277665     -2.56122873      7.67822162
H           3.19213704     -4.96514319      7.80955224
H           1.57111143     -5.32767467      8.42758903
H           3.08305608     -5.22921333     10.29093092
H           2.03222848     -3.81064933     10.36811089
H           4.55011877     -3.40696113      8.84642693
H           4.79769151     -3.73571463     10.56230693
H           2.96500491     -1.55940942      9.50591159
H           4.64926987     -1.31499550      9.99578829
H           2.51659364     -2.42383547     11.86301608
H           2.96379163     -0.72034130     11.77666719
H           3.37852294     -1.49120552     13.99837271
          52
 Energy =    -62.35767145 a.u.  #Cluster:  196
C           2.84700243     -1.34486432      4.52413415
C           3.77540327     -0.94395119      3.38782366
C           4.69924760      0.18582852      3.82387956
C           5.74896799      0.53883535      2.77110904
C           7.02064366     -0.30563419      2.90259501
C           6.79991920     -1.74395807      2.54619690
C           6.69763990     -2.74311579      3.40522400
C           6.75661798     -2.61470944      4.89555376
C           7.27146678     -3.84783326      5.57613741
C           7.13693774     -4.05767616      6.87235970
C           6.45553279     -3.09190398      7.79564780
C           6.10678395     -3.71495919      9.13726211
C           5.38477718     -2.71704082     10.02880652
C           5.00517411     -3.33971152     11.36412287
C           4.25645316     -2.36157450     12.26395475
C           2.84311719     -2.06976446     11.77062138
C           1.89438738     -3.24714236     11.96650053
C           0.62434704     -3.03636990     11.15839297
O           0.61241893     -2.27397069     10.21017359
O          -0.42089141     -3.70852600     11.51236872
H           3.43947215     -1.69650541      5.36913358
H           2.17361970     -2.13969738      4.20695165
H           2.25832748     -0.48395554      4.84110843
H           3.18524493     -0.61134706      2.53253489
H           4.36419845     -1.80922436      3.08507333
H           5.20520585     -0.10015616      4.74787658
H           4.08537797      1.06409602      4.03105662
H           6.02931178      1.58615170      2.88417370
H           5.32255748      0.39861415      1.77663367
H           7.37942603     -0.22492024      3.93020272
H           7.77803655      0.11021087      2.23536731
H           6.70744981     -1.93359089      1.48093356
H           6.52804471     -3.75414834      3.04772655
H           5.75001040     -2.40297052      5.27178384
H           7.37940877     -1.76014436      5.17497947
H           7.77291358     -4.56615144      4.93633161
H           7.52703204     -4.95470001      7.34185665
H           5.53928477     -2.72571648      7.32367425
H           7.10456662     -2.22722377      7.96168969
H           7.02029677     -4.04794133      9.63322204
H           5.46290932     -4.58192669      8.97780342
H           4.48614829     -2.37411415      9.51294825
H           6.03270902     -1.85557735     10.20249629
H           5.91729427     -3.66470440     11.86710476
H           4.38368531     -4.21854645     11.18238968
H           4.82386038     -1.43024186     12.30561816
H           4.19057476     -2.77483324     13.27175707
H           2.86607419     -1.82514853     10.70528609
H           2.44663345     -1.20692471     12.30793911
H           1.65822368     -3.37613545     13.02282640
H           2.36806413     -4.16315394     11.60916661
H          -0.25654572     -4.27107016     12.27446754
          52
 Energy =    -62.35764231 a.u.  #Cluster:  197
C           9.08304355     -0.43714222      1.65732079
C           8.87510632     -0.55325328      3.16041198
C           7.42970020     -0.88761293      3.51763245
C           6.96830267     -2.24858896      3.00162918
C           7.78588175     -3.41065900      3.57548001
C           7.74585834     -3.41536292      5.07649604
C           6.76663103     -3.91986016      5.80386541
C           5.54519287     -4.61307097      5.26646933
C           5.31927391     -5.91359192      5.98365342
C           4.52957577     -6.08190492      7.02880366
C           3.71899106     -5.01203629      7.69216791
C           4.41439608     -4.52770704      8.96489800
C           3.62829365     -3.41870268      9.65243314
C           2.34033520     -3.93695821     10.27887179
C           1.59780027     -2.84498134     11.04036099
C           0.98444047     -1.81371833     10.10111396
C           0.23490064     -0.73226043     10.87360617
C           1.20845330      0.13804105     11.65157041
O           2.40410020     -0.08713421     11.63332708
O           0.70513125      1.11925490     12.32607206
H           8.38891196      0.29540140      1.24497316
H           8.90861361     -1.39851363      1.17563097
H          10.10249088     -0.11947949      1.44297536
H           9.13574644      0.39791327      3.62626622
H           9.53855709     -1.32137737      3.55882381
H           6.78154474     -0.11835480      3.09417318
H           7.32107885     -0.86891668      4.60319005
H           7.03744780     -2.26987051      1.91387665
H           5.92381956     -2.39071799      3.28194546
H           8.81759910     -3.32838823      3.23424286
H           7.36846109     -4.34226268      3.18999955
H           8.58167840     -2.92256934      5.56272616
H           6.79984605     -3.86604150      6.88816164
H           5.66184738     -4.79524634      4.19772555
H           4.68325012     -3.95730648      5.41240893
H           5.90101829     -6.74671163      5.60154559
H           4.46181649     -7.05526120      7.50599942
H           2.73565896     -5.40645678      7.95276890
H           3.58863087     -4.16035358      7.02216329
H           5.40508643     -4.15650732      8.69748072
H           4.52789867     -5.36710195      9.65320278
H           3.39555524     -2.64624562      8.91791496
H           4.24316397     -2.97685280     10.43869542
H           2.59119961     -4.74830693     10.96452986
H           1.68506252     -4.33035948      9.50006234
H           2.29794630     -2.34404390     11.71236215
H           0.80073208     -3.29497098     11.63439427
H           0.30595091     -2.32054580      9.41326359
H           1.77728482     -1.33597358      9.52206697
H          -0.46713521     -1.19481881     11.56861503
H          -0.33010870     -0.10188401     10.18643857
H          -0.25130957      1.16933424     12.24143476
          52
 Energy =    -62.35745419 a.u.  #Cluster:  198
C          11.95673748     -2.34754576      4.57020808
C          11.55054252     -3.81240090      4.53593298
C          10.12924594     -3.99873700      5.04438664
C           9.71380011     -5.46180571      5.00163716
C           8.28565256     -5.64392353      5.51490350
C           7.30685354     -4.97107341      4.60195524
C           6.53679350     -3.93923492      4.89446117
C           6.43856107     -3.25537541      6.22964708
C           5.10121526     -3.53722944      6.85526102
C           4.10117418     -2.68365771      6.97245150
C           4.10606478     -1.24401927      6.55619384
C           3.52644783     -0.33863830      7.64253299
C           2.01783243     -0.49045679      7.76928172
C           1.47007341      0.41498339      8.86299055
C          -0.04749374      0.32251631      8.98948517
C          -0.52124483     -1.03714880      9.48988134
C          -0.07056063     -1.33451518     10.91535924
C          -0.78526874     -2.56952316     11.43993762
O          -1.73038121     -3.04404753     10.83933983
O          -0.34561172     -3.07813740     12.54395793
H          12.97508481     -2.22385281      4.20451773
H          11.89794739     -1.97423100      5.59265763
H          11.28070215     -1.76482566      3.94435399
H          12.23138630     -4.39486514      5.15885137
H          11.61313653     -4.18436048      3.51194142
H           9.44790599     -3.41030931      4.42632860
H          10.06378090     -3.63717728      6.07268174
H          10.39982069     -6.04451833      5.61761391
H           9.77421608     -5.82161939      3.97289674
H           8.22058485     -5.22834532      6.52119093
H           8.05738817     -6.71042462      5.56178981
H           7.29061537     -5.38668615      3.59788285
H           5.86543300     -3.53255322      4.14373314
H           6.56470152     -2.18064093      6.08705672
H           7.22809118     -3.61414614      6.89177103
H           4.98012302     -4.56371220      7.18882755
H           3.16771896     -3.01210155      7.42053387
H           3.50099354     -1.12679881      5.65323590
H           5.12478760     -0.92742983      6.32873031
H           3.75138890      0.70103309      7.39995486
H           3.99201399     -0.58016408      8.59967822
H           1.77773897     -1.52822440      8.00274997
H           1.54884825     -0.23173037      6.81776076
H           1.74443647      1.44507285      8.62872145
H           1.93361428      0.14548919      9.81326018
H          -0.48895413      0.51808223      8.01056691
H          -0.39340280      1.08727810      9.68714251
H          -0.15119291     -1.82228620      8.82868089
H          -1.61364337     -1.06692004      9.47074740
H          -0.31573954     -0.48846682     11.55978498
H           1.00689486     -1.49283269     10.95522015
H           0.40296274     -2.59162159     12.90057655
          52
 Energy =    -62.35735997 a.u.  #Cluster:  199
C           7.01978397      0.00477302      6.20437670
C           6.61979143     -1.38611508      5.73408678
C           7.36722577     -1.79662295      4.46883595
C           8.83539821     -2.12679623      4.72788396
C           8.99855080     -3.45694466      5.46446401
C           8.52284216     -4.59455040      4.61316571
C           7.59709421     -5.48245397      4.92390962
C           6.81656622     -5.54767334      6.20489316
C           5.34762649     -5.67038497      5.91929052
C           4.38463223     -4.91133401      6.40715963
C           4.54271633     -3.78782563      7.38544806
C           3.70527316     -4.00700156      8.64615859
C           2.21571231     -3.85920505      8.36818715
C           1.37716307     -4.01210709      9.63387964
C           1.53041345     -2.84017316     10.59867751
C           0.91080919     -1.56145282     10.05510729
C           1.04949726     -0.41070282     11.04895788
C           0.49950664      0.86602864     10.44025530
O          -0.50618647      1.39496916     10.87462957
O           1.13933192      1.34400794      9.42283407
H           6.81399418      0.73233563      5.41909574
H           8.08350161      0.03219733      6.43877189
H           6.45731274      0.27666256      7.09636196
H           5.54805841     -1.39356123      5.53328017
H           6.82332039     -2.10590033      6.52699745
H           7.30507253     -0.97702509      3.75121106
H           6.88711301     -2.67387752      4.03143378
H           9.28999664     -1.32920634      5.31561926
H           9.35864870     -2.19592219      3.77308194
H           8.44562492     -3.42292496      6.40303853
H          10.05626639     -3.60137996      5.69430659
H           9.01330404     -4.64568641      3.64450409
H           7.33280470     -6.26241083      4.21512098
H           7.01577369     -4.66996625      6.81844636
H           7.13610182     -6.43469308      6.76076436
H           5.10851681     -6.46610568      5.21906038
H           3.35651560     -5.09635051      6.10933383
H           4.21579971     -2.85556985      6.91837132
H           5.59023950     -3.68260240      7.66730327
H           4.00300466     -3.26997958      9.39271259
H           3.90267500     -5.00373179      9.04422954
H           1.90960952     -4.62189501      7.65138303
H           2.03343221     -2.87942861      7.92363231
H           1.67816555     -4.93296654     10.13626387
H           0.32427136     -4.09405949      9.35855381
H           2.58847887     -2.66488969     10.79996888
H           1.03973523     -3.08868123     11.54121917
H          -0.14633303     -1.73500464      9.84458277
H           1.41130699     -1.27558207      9.12795829
H           2.10686657     -0.28137758     11.28275406
H           0.50302291     -0.64700613     11.96254668
H           1.91182523      0.82010054      9.19198755
          52
 Energy =    -62.35735746 a.u.  #Cluster:  200
C          11.27249045     -5.81165607      4.77558384
C          10.37930075     -4.95325425      5.65719482
C          10.08921880     -3.61108928      5.00272890
C           9.19475105     -2.75302150      5.88459877
C           8.91231620     -1.39059251      5.24713699
C           8.17767898     -1.54281579      3.94635571
C           6.87023415     -1.69188375      3.83106664
C           5.90203307     -1.73568405      4.97426613
C           5.44174642     -3.14186500      5.24504578
C           4.24248324     -3.46928549      5.68970524
C           3.16462305     -2.47716769      6.02011297
C           3.40435830     -1.83675092      7.38930990
C           3.34881313     -2.87485553      8.50141614
C           3.58122117     -2.25688128      9.87708949
C           2.43244805     -1.36386072     10.33627834
C           1.16880341     -2.15580172     10.63430771
C           0.04143476     -1.25759466     11.12655892
C          -1.25464794     -2.04550880     11.21893908
O          -1.34645263     -3.15104897     10.71985064
O          -2.24225923     -1.48542862     11.83678780
H          12.21776414     -5.29792990      4.60016841
H          10.78395285     -5.98492203      3.81665257
H          11.47214086     -6.77078641      5.25122509
H          10.86893114     -4.78314231      6.61748659
H           9.43593413     -5.47187974      5.83596772
H           9.59919368     -3.78117035      4.04225462
H          11.02954778     -3.08555554      4.82424822
H           9.68416453     -2.60558463      6.84847159
H           8.25048529     -3.27375014      6.05014880
H           9.86219133     -0.88194655      5.07829249
H           8.31474956     -0.79839601      5.94258168
H           8.80313874     -1.55374528      3.05949739
H           6.41930838     -1.82563618      2.85253436
H           5.03546251     -1.10977440      4.74993914
H           6.37780143     -1.34439841      5.87685563
H           6.18807366     -3.90532342      5.04962553
H           3.99717725     -4.50975677      5.87532811
H           2.19295767     -2.97200072      6.03161707
H           3.14991313     -1.68772717      5.26589273
H           2.64298949     -1.07565908      7.56195031
H           4.38381749     -1.35608821      7.39380330
H           4.11902378     -3.62598200      8.31948402
H           2.37636119     -3.36936905      8.48030022
H           4.49939633     -1.66816983      9.83775186
H           3.71045982     -3.05440797     10.61087692
H           2.21422302     -0.62104496      9.56738281
H           2.73274915     -0.83774649     11.24401620
H           1.38593622     -2.91019070     11.39340438
H           0.82566336     -2.66732451      9.73187993
H          -0.09945892     -0.43575629     10.42229800
H           0.29266373     -0.83306077     12.09889509
H          -2.01884411     -0.61283835     12.17276908
          52
 Energy =    -62.35735625 a.u.  #Cluster:  201
C           6.92130980      0.01359649      6.21326069
C           6.55365971     -1.38683914      5.74491932
C           7.32109120     -1.78690233      4.48834380
C           8.79187573     -2.09114230      4.76388178
C           8.96971448     -3.41862048      5.50152421
C           8.52409915     -4.56411964      4.64447783
C           7.62698006     -5.48157144      4.95324240
C           6.85506018     -5.57826998      6.23762566
C           5.38995411     -5.75044654      5.95804005
C           4.40654507     -5.00693670      6.42881626
C           4.53479690     -3.85503977      7.37795091
C           3.67214618     -4.04473477      8.62624802
C           2.18991076     -3.88868885      8.31605642
C           1.32144149     -4.02658871      9.56311426
C           1.48788769     -2.86927414     10.54338847
C           0.95677338     -1.55719136      9.98586182
C           1.09326692     -0.42647882     11.00286745
C           0.64569247      0.88349257     10.38093100
O          -0.35722238      1.45737702     10.76104314
O           1.37022211      1.34028096      9.41155230
H           6.70735345      0.73397258      5.42355019
H           7.98225441      0.06351113      6.45637964
H           6.34594589      0.27722688      7.09946879
H           5.48422040     -1.41663067      5.53422873
H           6.76428259     -2.09944274      6.54244585
H           7.25219388     -0.96998846      3.76828834
H           6.86098202     -2.67331280      4.04794136
H           9.22559281     -1.28595078      5.35704873
H           9.32708640     -2.15054576      3.81508716
H           8.40540164     -3.39503662      6.43367447
H          10.02703518     -3.54477869      5.74383629
H           9.01245655     -4.59477787      3.67386555
H           7.38326312     -6.26485946      4.24080840
H           7.02708419     -4.69610994      6.85301236
H           7.20784963     -6.45558925      6.78865867
H           5.17295192     -6.56924968      5.27759741
H           3.38347098     -5.22773058      6.13800179
H           4.21059223     -2.93915091      6.87767476
H           5.57541323     -3.73261725      7.67790195
H           3.96196172     -3.29694978      9.36500746
H           3.85290761     -5.03585343      9.04560139
H           1.89371359     -4.65442224      7.59821624
H           2.02467849     -2.91120141      7.86008841
H           1.58431206     -4.95996689     10.06387846
H           0.27288772     -4.07527582      9.26420795
H           2.54282965     -2.74736417     10.79412844
H           0.94355824     -3.10093534     11.46046843
H          -0.09401910     -1.67923842      9.71593660
H           1.51986879     -1.28269263      9.09184398
H           2.14004664     -0.35393583     11.30024329
H           0.48225228     -0.64497410     11.87923063
H           2.12855526      0.78060939      9.22119905
          52
 Energy =    -62.35727401 a.u.  #Cluster:  202
C           9.59594463     -0.84180672      0.99905866
C           9.70699618     -1.10017292      2.49474684
C           8.41759909     -0.74828959      3.23113178
C           7.27931045     -1.72556560      2.94717140
C           7.50052819     -3.10204126      3.58253419
C           7.39047867     -3.04242558      5.07573976
C           6.42950513     -3.56859930      5.81174616
C           5.26669532     -4.38441211      5.31820074
C           5.24441107     -5.72243412      6.00257732
C           4.54506205     -6.01438861      7.08425520
C           3.65316755     -5.06902317      7.82765670
C           4.36001204     -4.53756961      9.07518028
C           3.51033415     -3.51081285      9.81265791
C           2.29387903     -4.14373855     10.47547292
C           1.49007943     -3.12532564     11.27598544
C           0.75331264     -2.14621807     10.37016891
C          -0.04233555     -1.12665079     11.17983155
C           0.89479408     -0.17530224     11.90595738
O           2.10210936     -0.31246311     11.84115712
O           0.34797213      0.77696834     12.58808305
H           9.35336345      0.20655594      0.82393020
H           8.81105043     -1.46099986      0.56567126
H          10.53830954     -1.07519055      0.50564262
H          10.51940741     -0.49327369      2.89591950
H           9.94839638     -2.15051287      2.66307741
H           8.10811852      0.25231146      2.92421162
H           8.61034585     -0.73253721      4.30434719
H           7.17535704     -1.84745751      1.86855038
H           6.34832940     -1.31155676      3.33680958
H           8.49293948     -3.46427239      3.30675725
H           6.75887270     -3.79289804      3.18093171
H           8.18140243     -2.47539845      5.55823874
H           6.44452827     -3.44975877      6.89171259
H           5.33594993     -4.52473978      4.23918607
H           4.34425628     -3.84255034      5.54023353
H           5.90000908     -6.46617718      5.56037947
H           4.62432589     -7.00101911      7.53142731
H           2.74028056     -5.58529087      8.12828824
H           3.38424490     -4.22141783      7.19476746
H           5.29913585     -4.07403646      8.76845453
H           4.58144242     -5.37018132      9.74510149
H           3.18646202     -2.74902240      9.10184371
H           4.11558672     -3.03117546     10.58411766
H           2.63607457     -4.93829664     11.14094334
H           1.64682133     -4.58243410      9.71422522
H           2.17061405     -2.56910589     11.92423532
H           0.75923324     -3.64582732     11.89691230
H           0.08587968     -2.70563165      9.71295189
H           1.47788136     -1.60746768      9.75620257
H          -0.66658583     -1.64229497     11.91078357
H          -0.69256613     -0.54866018     10.52262759
H          -0.61218129      0.75565715     12.54211407
          52
 Energy =    -62.35727269 a.u.  #Cluster:  203
C           9.94039102     -1.13193085      0.97514524
C          10.01091301     -1.46603178      2.45826935
C           8.86116792     -0.83604824      3.23905473
C           7.51646536     -1.50422931      2.96238135
C           7.40452200     -2.89573578      3.59124664
C           7.24504912     -2.81604720      5.07875343
C           6.25487251     -3.31931229      5.79147668
C           5.09647815     -4.12560747      5.27221483
C           5.10528639     -5.49673433      5.88902014
C           4.43000616     -5.85205973      6.96695912
C           3.53885475     -4.95856994      7.77273291
C           4.25458016     -4.49478748      9.04190143
C           3.40399938     -3.52126599      9.84751171
C           2.19799030     -4.20276042     10.48058748
C           1.39588461     -3.24255824     11.35161909
C           0.64621072     -2.21104492     10.51736465
C          -0.15124913     -1.25348012     11.39789436
C           0.78350172     -0.34677955     12.18193193
O           1.99131266     -0.47133667     12.10306170
O           0.23391637      0.55413770     12.92855682
H           9.96268828     -0.05033312      0.84035202
H           9.01842910     -1.52055350      0.54353377
H          10.78601271     -1.57262246      0.44915409
H          10.95527243     -1.09395379      2.85693168
H           9.98752181     -2.54913809      2.58608354
H           8.79637012      0.21864618      2.96635869
H           9.07407029     -0.90095621      4.30671667
H           7.37826241     -1.59052489      1.88424740
H           6.71687511     -0.87890728      3.36166754
H           8.30742890     -3.46370554      3.35504419
H           6.55148982     -3.41356037      3.15235930
H           8.03358937     -2.26051972      5.57875139
H           6.24210292     -3.19209143      6.87048628
H           5.15347854     -4.21190383      4.18690167
H           4.16919807     -3.61080989      5.53401034
H           5.76252782     -6.20789203      5.39835690
H           4.53003411     -6.85880094      7.36217182
H           2.63322937     -5.49914862      8.05203402
H           3.25671974     -4.07798954      7.19295628
H           5.18620437     -4.00510725      8.75349097
H           4.49044477     -5.36332084      9.65922904
H           3.06851900     -2.72008308      9.18719591
H           4.01268564     -3.08499311     10.64168219
H           2.55148761     -5.03547172     11.09126615
H           1.54606788     -4.59676847      9.69933242
H           2.07899721     -2.72558120     12.02897228
H           0.67304463     -3.80631627     11.94347639
H          -0.02186025     -2.73063317      9.82883435
H           1.36269586     -1.62746257      9.93579312
H          -0.76811749     -1.82143183     12.09558780
H          -0.80884584     -0.63698075     10.78447399
H          -0.72628712      0.52975784     12.88551116
          52
 Energy =    -62.35703875 a.u.  #Cluster:  204
C           9.44486013     -2.66675591      4.66911836
C           8.43942457     -1.59892346      5.07514689
C           7.05062129     -1.88341669      4.51475812
C           6.98688102     -1.69263491      3.00516997
C           5.57130991     -1.92833154      2.47806555
C           4.62483254     -0.90534458      3.02799807
C           3.54538886     -1.15908291      3.74418831
C           3.07977240     -2.54356823      4.12399028
C           3.96147013     -3.14166489      5.19181515
C           4.03671320     -2.67713767      6.42499802
C           3.24300392     -1.52455920      6.96196479
C           2.82941352     -1.77766460      8.40740258
C           1.86581274     -2.95485872      8.49260434
C           1.53867484     -3.34400636      9.93655811
C           2.33654580     -4.55491313     10.41561865
C           3.84860202     -4.33943614     10.44333543
C           4.28355466     -3.27621920     11.44965315
C           4.01422845     -3.72841644     12.87462536
O           3.45177933     -4.78178675     13.10710343
O           4.40891032     -2.93914860     13.81992686
H           9.55447996     -2.68940517      3.58537821
H           9.10003996     -3.64378882      5.00839040
H          10.41634619     -2.45897967      5.11542435
H           8.77571446     -0.62646252      4.71197072
H           8.38435319     -1.56366826      6.16397193
H           6.33153019     -1.20848955      4.98238341
H           6.77149544     -2.91026848      4.75829675
H           7.66988321     -2.38879299      2.51842293
H           7.29157704     -0.67324057      2.76090858
H           5.25242608     -2.93262003      2.75771024
H           5.58667701     -1.85495128      1.38831315
H           4.90540040      0.12042599      2.80596041
H           2.93786556     -0.34481693      4.12366356
H           3.09255992     -3.18709948      3.24401179
H           2.05600069     -2.48272744      4.49693423
H           4.58091530     -3.97436853      4.87883177
H           4.70819020     -3.13332837      7.14643926
H           2.34891355     -1.37211211      6.35449338
H           3.84974715     -0.61726995      6.91436322
H           2.34656805     -0.89005980      8.81747788
H           3.72286739     -1.98971736      8.99416024
H           2.30597264     -3.81418315      7.98277504
H           0.94997737     -2.68074607      7.96683371
H           0.47995838     -3.59234145     10.01561589
H           1.73446880     -2.49024351     10.58666334
H           2.12053417     -5.38991134      9.74688502
H           2.00730822     -4.82675298     11.42072799
H           4.19196045     -4.06504416      9.44561311
H           4.32336615     -5.28279482     10.72156944
H           3.75022916     -2.34323489     11.26695049
H           5.34986900     -3.07872216     11.33701320
H           4.83636828     -2.14724481     13.48132922
          52
 Energy =    -62.35693332 a.u.  #Cluster:  205
C          10.95087389     -1.97263111      4.69090837
C          10.59431180     -3.39934451      4.30432246
C           9.40061124     -3.89943055      5.10336666
C           9.04115281     -5.32885106      4.72678139
C           7.85656151     -5.83926546      5.55017680
C           6.60720097     -5.08625653      5.20560876
C           6.07162413     -4.10367782      5.90611275
C           6.58045391     -3.56692115      7.21549026
C           5.48279285     -3.53549772      8.24189951
C           4.66301069     -2.51372177      8.40321203
C           4.73658697     -1.24035790      7.60929894
C           3.79209795     -0.16984170      8.13897939
C           2.33623572     -0.54369045      7.90298717
C           1.40006504      0.50527694      8.48450017
C          -0.07178591      0.19355804      8.22329096
C          -0.49309300     -1.18903635      8.71303447
C          -0.29873405     -1.38070341     10.21741840
C          -0.37131075     -2.86015388     10.54640543
O          -1.29956958     -3.33529462     11.17149937
O           0.60264110     -3.58776303     10.10088564
H          11.19384630     -1.93035087      5.75272607
H          10.10107196     -1.31740093      4.49911786
H          11.80696512     -1.62233864      4.11605162
H          11.44805116     -4.05263301      4.49188515
H          10.35295341     -3.44011201      3.24093315
H           8.54626014     -3.24645837      4.91520106
H           9.63805930     -3.85943886      6.16835908
H           9.90633145     -5.96923714      4.90304492
H           8.78615607     -5.36871656      3.66629889
H           8.09580586     -5.71914729      6.60779124
H           7.70914005     -6.89989671      5.34151745
H           6.15966776     -5.37747788      4.25947663
H           5.17220337     -3.60817864      5.55245817
H           6.94495776     -2.54962135      7.05029169
H           7.41008029     -4.17664450      7.57336648
H           5.37143288     -4.43687875      8.83512489
H           3.87541469     -2.55293096      9.14898991
H           4.48092955     -1.44871290      6.56724454
H           5.76356038     -0.86693037      7.62953563
H           3.99869312      0.77769033      7.63937080
H           3.95564454     -0.04202259      9.21062014
H           2.13944809     -1.50469835      8.38088129
H           2.15461345     -0.64272582      6.83105834
H           1.63825428      1.47419838      8.04257231
H           1.57647458      0.57149941      9.55939619
H          -0.25344210      0.24869856      7.14846767
H          -0.68521879      0.94775572      8.71903378
H           0.09711124     -1.94500387      8.19243317
H          -1.54417297     -1.34731570      8.46761960
H          -1.06198761     -0.83173365     10.76854079
H           0.68713480     -1.01250912     10.49961752
H           1.26297950     -3.07027287      9.62903993
          52
 Energy =    -62.35658390 a.u.  #Cluster:  206
C          11.17829101     -6.06015771      4.97619536
C          10.34450912     -5.11502625      5.82676220
C          10.11733210     -3.79089591      5.11333140
C           9.27580657     -2.84860083      5.96069207
C           9.06454051     -1.50081545      5.26698656
C           8.31408490     -1.66788027      3.97741425
C           6.99892482     -1.72503577      3.86901281
C           6.02968305     -1.63130815      5.00979630
C           5.45665601     -2.98083141      5.34298847
C           4.19441721     -3.21568336      5.65072853
C           3.13264542     -2.15756957      5.74836768
C           3.22724326     -1.40156541      7.07565231
C           2.97168826     -2.32583196      8.25799556
C           3.06303445     -1.58905990      9.59099283
C           1.89680683     -0.63241392      9.82795270
C           0.58145975     -1.35460644     10.09862383
C           0.54560644     -2.02178260     11.46860929
C          -0.68414546     -2.90682613     11.58534038
O          -1.31226719     -3.23109067     10.59524861
O          -1.01657740     -3.30145847     12.77035906
H          12.14660711     -5.60631512      4.76496780
H          10.66724110     -6.25194019      4.03264218
H          11.33414600     -7.00520768      5.49447594
H          10.85579447     -4.92737463      6.77238316
H           9.37740543     -5.57325484      6.04034088
H           9.61081815     -3.97930242      4.16494243
H          11.08159700     -3.32301078      4.90465277
H           9.77788445     -2.68764390      6.91585953
H           8.30518571     -3.30914762      6.15104545
H          10.04001115     -1.05360118      5.07178183
H           8.50575406     -0.84714284      5.93911324
H           8.93363927     -1.77432987      3.09265297
H           6.53680589     -1.87801008      2.89849246
H           5.22041904     -0.94647942      4.74934244
H           6.53757195     -1.24020796      5.89463565
H           6.17898033     -3.79085320      5.31430907
H           3.87471775     -4.22393362      5.89287038
H           2.14489839     -2.61386268      5.67612727
H           3.25070337     -1.44211817      4.93230191
H           2.49263298     -0.59573689      7.07760743
H           4.22274383     -0.96469371      7.16844690
H           3.71376635     -3.12552380      8.24559102
H           1.98245268     -2.77468851      8.15281211
H           3.99573951     -1.02287929      9.60555872
H           3.09162509     -2.31763957     10.40266922
H           1.78205751      0.00817005      8.95256006
H           2.12447019     -0.00075744     10.68812245
H           0.41484794     -2.12250392      9.33898628
H          -0.23927656     -0.63780579     10.03974779
H           0.54516623     -1.26901747     12.25731823
H           1.42876828     -2.64945972     11.59802257
H          -0.42354457     -2.96755692     13.44936735
          52
 Energy =    -62.35608948 a.u.  #Cluster:  207
C           9.46197971     -3.37228875      4.15345739
C           8.65012833     -2.41184947      5.01059223
C           7.24744726     -2.19862841      4.45304164
C           7.25619800     -1.40040553      3.15630385
C           5.83480534     -1.16174821      2.64726412
C           5.06853379     -0.29876546      3.60260424
C           3.93616536     -0.61538439      4.20263107
C           3.20420743     -1.92292035      4.04024694
C           3.71993820     -2.92371991      5.04202799
C           3.22791789     -3.06987976      6.25688971
C           2.06439560     -2.29211400      6.80448904
C           2.00145195     -2.36859811      8.32528199
C           1.54766509     -3.74385152      8.79879638
C           1.64826305     -3.90022484     10.31854301
C           2.89488199     -4.67019573     10.74962846
C           4.21173424     -3.99544441     10.36994526
C           4.42657886     -2.65991138     11.07864427
C           4.60811100     -2.85714024     12.57382601
O           4.50938839     -3.95808200     13.08187323
O           4.86816564     -1.80056940     13.27264330
H           9.59135269     -2.96634026      3.15072679
H           8.94355271     -4.32865843      4.08163410
H          10.44415009     -3.53373757      4.59548975
H           9.16141341     -1.44916292      5.06080608
H           8.57506608     -2.81898810      6.01974841
H           6.64712482     -1.66150955      5.18945874
H           6.78432806     -3.17065666      4.27144319
H           7.82113827     -1.94104989      2.39697872
H           7.73777148     -0.43672843      3.33246185
H           5.34029718     -2.12539699      2.52208258
H           5.88823843     -0.66432915      1.67625954
H           5.53764195      0.66151002      3.79917912
H           3.48133325      0.07257240      4.90789479
H           3.35573441     -2.30995288      3.03223481
H           2.13789279     -1.76246328      4.20091730
H           4.57657819     -3.50219615      4.71399831
H           3.65850403     -3.79450189      6.94080005
H           1.13314552     -2.69111438      6.39244697
H           2.15003389     -1.24918690      6.49579607
H           1.30160532     -1.62120992      8.70105711
H           2.98975677     -2.14782441      8.72732810
H           2.16007647     -4.51187665      8.32372929
H           0.51483283     -3.88800172      8.47826510
H           0.77837264     -4.44454062     10.68698685
H           1.64669812     -2.91077320     10.77767259
H           2.86534074     -5.65456611     10.27926150
H           2.87569840     -4.80714398     11.83287355
H           4.24298315     -3.84984599      9.28994284
H           5.03049991     -4.66197468     10.64941735
H           3.57470636     -2.00126488     10.90920545
H           5.31315224     -2.16918160     10.67631305
H           4.91552148     -1.00672887     12.73221272
          52
 Energy =    -62.35607667 a.u.  #Cluster:  208
C           7.01637735     -2.72845135      0.18768700
C           7.48812302     -3.16983238      1.56566039
C           6.83057126     -2.36137909      2.67827971
C           7.33228123     -0.92438907      2.72115496
C           6.66756807     -0.14534692      3.85805872
C           7.07618867     -0.69851078      5.18934254
C           6.32658310     -1.42734582      5.99631790
C           4.91080607     -1.84947288      5.74824676
C           4.79702412     -3.34935990      5.68982954
C           3.70836498     -4.03196923      5.99045273
C           2.42749445     -3.41021802      6.46993328
C           2.45174551     -3.20347912      7.98699112
C           2.56740677     -4.52821300      8.72618966
C           2.48807725     -4.36035016     10.24055861
C           3.67155786     -3.57077009     10.80845494
C           3.34429319     -2.10374148     11.08562269
C           2.38078523     -1.93108835     12.25822671
C           3.03929904     -2.32314359     13.57009469
O           4.15496579     -2.80785705     13.59565918
O           2.35559524     -2.11982207     14.64862157
H           7.28841236     -1.68840601      0.01063083
H           5.93238262     -2.82454616      0.12222896
H           7.47435260     -3.34653457     -0.58325879
H           8.57063709     -3.05096790      1.63414209
H           7.24485426     -4.22472542      1.69906840
H           7.04459397     -2.83546248      3.63774616
H           5.74910384     -2.35813283      2.52791279
H           7.10932859     -0.43090753      1.77523347
H           8.41349693     -0.92474214      2.87069642
H           5.58570719     -0.20807840      3.73321333
H           6.96797268      0.90171470      3.79397452
H           8.10514935     -0.47970207      5.46107825
H           6.73702974     -1.79574167      6.93213094
H           4.55400080     -1.43261835      4.80315556
H           4.27443189     -1.46836725      6.54923188
H           5.69528289     -3.85692067      5.35296570
H           3.70754392     -5.11507830      5.92592756
H           1.58587034     -4.05746199      6.21989489
H           2.28515073     -2.44330753      5.98560121
H           1.53457964     -2.70058226      8.29649915
H           3.30116471     -2.56797997      8.23750847
H           3.51817169     -5.00103368      8.47324574
H           1.75703551     -5.18197253      8.39778144
H           2.46290212     -5.35158526     10.69376445
H           1.55614363     -3.84921649     10.48769196
H           4.49787739     -3.62091420     10.09785415
H           4.00603177     -4.02154287     11.74442780
H           2.91420440     -1.65352363     10.19151114
H           4.27132612     -1.57980434     11.32790279
H           1.49428585     -2.54881744     12.10943517
H           2.05783567     -0.89167781     12.32103782
H           1.49462244     -1.73140577     14.46889943
          52
 Energy =    -62.35589073 a.u.  #Cluster:  209
C          12.97349433     -4.96032671      4.02952150
C          11.84837921     -4.87071237      5.04837242
C          10.90495393     -3.72223760      4.72404916
C           9.77549280     -3.63672404      5.74005510
C           8.83379381     -2.46465730      5.46020302
C           7.99845141     -2.70627156      4.24010141
C           6.68161008     -2.64935168      4.16671485
C           5.73951138     -2.32161544      5.28667955
C           4.64417308     -3.34271888      5.39359157
C           3.38218222     -3.07586187      5.67703133
C           2.84925706     -1.70383903      5.97364102
C           3.10735626     -1.31433134      7.43105127
C           2.36431557     -2.23515254      8.38903037
C           2.58523858     -1.84402854      9.84724289
C           1.87090196     -0.55119981     10.23421265
C           0.35614147     -0.70923291     10.30905598
C          -0.09336420     -1.52352280     11.51659896
C          -1.57743268     -1.83345575     11.41271983
O          -2.16731648     -1.70012791     10.35713682
O          -2.16936840     -2.25068081     12.48324698
H          13.54198683     -4.03025943      4.02759435
H          12.55620492     -5.11871769      3.03502152
H          13.64257197     -5.78535722      4.26972289
H          12.26855755     -4.71659304      6.04361916
H          11.28362400     -5.80442627      5.05121360
H          10.49249842     -3.87340010      3.72523288
H          11.46332554     -2.78385219      4.72961591
H          10.21206562     -3.51308044      6.73234342
H           9.20693563     -4.56820478      5.72476092
H           9.43951831     -1.56695287      5.31237099
H           8.19066638     -2.30765091      6.32686940
H           8.57343007     -2.95413658      3.35248827
H           6.18363898     -2.85181154      3.22268107
H           5.30100641     -1.33563973      5.11193830
H           6.28304926     -2.28047954      6.23354220
H           4.96389821     -4.36440018      5.21281960
H           2.65992957     -3.88267302      5.74723344
H           1.77462560     -1.67443835      5.79018499
H           3.33751055     -0.97208356      5.32710286
H           2.77846860     -0.28630328      7.58630819
H           4.17826559     -1.37113456      7.63266133
H           2.71698014     -3.25666869      8.23995796
H           1.29806833     -2.20376932      8.15804882
H           3.65715812     -1.72083939     10.00999400
H           2.23065985     -2.64901213     10.49278932
H           2.11655631      0.22022754      9.50315642
H           2.23032107     -0.22505330     11.21150573
H          -0.01191900     -1.20328344      9.40632858
H          -0.10476644      0.27834175     10.36513882
H           0.11504727     -0.98077827     12.43894242
H           0.44970742     -2.46944774     11.54840355
H          -1.57292282     -2.30839176     13.23500507
          52
 Energy =    -62.35583605 a.u.  #Cluster:  210
C           7.46723025      0.34160281      2.32721850
C           8.34455924     -0.84402471      2.70220706
C           8.20033781     -1.22336081      4.17318826
C           6.80692070     -1.72561866      4.54363118
C           6.42297130     -3.00949491      3.80075987
C           7.41916476     -4.10530807      4.04924883
C           7.45339234     -4.83885627      5.14709368
C           6.49285958     -4.70559051      6.28655826
C           6.28839923     -5.98202099      7.04783655
C           5.41917333     -6.07533937      8.03638606
C           4.57210172     -4.91613385      8.47228512
C           3.66380297     -5.26363004      9.64100019
C           2.84313879     -4.06170774     10.09414863
C           1.76695522     -3.69340035      9.08130383
C           0.93599896     -2.50158987      9.54241737
C           1.72308814     -1.20032874      9.47202603
C           0.87249236     -0.01194750      9.93022665
C           0.58118689     -0.17178514     11.41018740
O           1.37115863      0.22169155     12.24879345
O          -0.50529926     -0.79292865     11.73715629
H           7.69225741      1.18651855      2.97833275
H           6.41458686      0.08318629      2.43621356
H           7.65013627      0.63190349      1.29361360
H           9.38665005     -0.58443367      2.51162695
H           8.08539084     -1.69815162      2.07590412
H           8.42633165     -0.34512926      4.78049199
H           8.92726530     -2.00170496      4.41078813
H           6.06884587     -0.95411850      4.32365674
H           6.78363861     -1.92624547      5.61531240
H           6.35659738     -2.80226700      2.73294588
H           5.43869276     -3.32293582      4.15492417
H           8.16028192     -4.25136656      3.27050158
H           8.21341237     -5.60305855      5.27840754
H           5.52616042     -4.34926939      5.91726281
H           6.85918635     -3.94118432      6.98062173
H           6.89993420     -6.82419248      6.74253394
H           5.27570086     -7.00016134      8.58450501
H           3.96977528     -4.57969921      7.62393021
H           5.22280528     -4.08379723      8.75669746
H           4.28003708     -5.61390476     10.47052654
H           2.98709556     -6.06781700      9.34644817
H           3.51553364     -3.21464909     10.23926450
H           2.36068086     -4.28977035     11.04617852
H           1.11527509     -4.55710500      8.93824224
H           2.23151708     -3.44706980      8.12510875
H           0.60460845     -2.67565300     10.56805420
H           0.05391072     -2.40580632      8.90705073
H           2.05077585     -1.04159837      8.44315970
H           2.60554502     -1.26439057     10.11109893
H          -0.05157359      0.00656718      9.35231421
H           1.42659640      0.91236270      9.76841108
H          -1.03663696     -1.03754686     10.97447491
          52
 Energy =    -62.35549609 a.u.  #Cluster:  211
C           8.74589432     -0.45867955      1.33402241
C           9.18225423     -0.90902133      2.72064855
C           8.01077114     -0.99190257      3.69506867
C           6.95690157     -2.02526660      3.30356538
C           7.51814450     -3.44935929      3.23355535
C           8.14512973     -3.85260066      4.53623439
C           7.47732293     -4.30788755      5.58059305
C           5.99312688     -4.53129245      5.62663395
C           5.65552221     -5.77060089      6.40078433
C           4.79306497     -5.86161368      7.39599522
C           3.97166501     -4.75145220      7.97339308
C           4.17749329     -4.65668309      9.48318350
C           3.34862835     -3.53664513     10.09997110
C           1.86016747     -3.85921018     10.09342444
C           1.04062742     -2.78012147     10.79149833
C           0.98589806     -1.49254863      9.98115416
C           0.14805595     -0.42593058     10.69278016
C           0.86764049     -0.01896013     11.96454490
O           1.73073969      0.83946641     11.94714071
O           0.56843100     -0.66121976     13.04678153
H           8.21415696      0.49032661      1.40521531
H           8.08592064     -1.20023406      0.88550838
H           9.61508328     -0.33068040      0.69039703
H           9.90712870     -0.19372261      3.11128129
H           9.66859634     -1.88221422      2.64810011
H           7.53280672     -0.01207292      3.74652206
H           8.39385721     -1.23968949      4.68624409
H           6.53109141     -1.76422620      2.33459216
H           6.15816074     -2.00513833      4.04607986
H           8.25592564     -3.50706308      2.43355186
H           6.69546773     -4.12596485      2.99464670
H           9.21901799     -3.70939021      4.59876434
H           7.99725045     -4.55764644      6.50040893
H           5.60860213     -4.62518450      4.60767654
H           5.51468091     -3.66227417      6.08426032
H           6.20257071     -6.65136460      6.07663247
H           4.63538329     -6.81760593      7.88833023
H           2.91576335     -4.94683347      7.77249183
H           4.23782907     -3.79675424      7.51734956
H           5.23489912     -4.47454031      9.68089352
H           3.89425108     -5.60561745      9.94244268
H           3.52857439     -2.61736805      9.54058220
H           3.66537346     -3.38272544     11.13312084
H           1.71032797     -4.81271733     10.60303856
H           1.50943946     -3.95641797      9.06471215
H           1.48054695     -2.57899284     11.77034285
H           0.02039430     -3.13817462     10.93970987
H           0.55095033     -1.70854128      9.00376912
H           1.99454329     -1.10256918      9.83387374
H          -0.83500716     -0.83938373     10.91837755
H           0.04198104      0.44270422     10.04334530
H          -0.13511166     -1.30272335     12.91496597
