          52
 G =     -854.406396 Gcorr = 0.372453 a.u. Nimag =   0 Frame:     1 Step:     1 Geom:     1
C           5.47483900      2.33227400      6.26652000
C           4.84404400      1.03863900      5.76557000
C           5.75738500     -0.17308400      5.93344400
C           5.09677500     -1.48369500      5.51520700
C           5.98645500     -2.72354700      5.65624800
C           6.28068300     -3.11843700      7.07902800
C           6.41637300     -4.36381800      7.55112000
C           6.31226800     -5.64904100      6.76679200
C           5.46621600     -6.68934100      7.45656900
C           4.21511200     -7.04590100      7.14513900
C           3.34057100     -6.47570000      6.06296000
C           2.23803000     -5.56344000      6.62488200
C           2.80107200     -4.31365300      7.29046500
C           1.75710500     -3.42415100      7.95691800
C           2.34954000     -2.17696400      8.61684800
C           3.36737300     -2.48459700      9.71557300
C           3.84068900     -1.25017800     10.49500400
C           4.61788400     -0.30234700      9.60294800
O           5.78852900     -0.41897500      9.37020800
O           3.91258600      0.68449400      9.02027300
H           6.41417100      2.55055600      5.73338700
H           5.70630300      2.25539600      7.33970000
H           4.80281800      3.19255000      6.12557700
H           4.55859200      1.14213000      4.70336700
H           3.90793700      0.85654600      6.32046400
H           6.07798200     -0.22694400      6.98642500
H           6.67645900     -0.02514200      5.33742100
H           4.77027800     -1.40172700      4.46406700
H           4.17428200     -1.62996300      6.10484900
H           6.94128500     -2.52877300      5.13301300
H           5.52182300     -3.56552600      5.11841100
H           6.40667300     -2.29632800      7.79349400
H           6.64070800     -4.48224900      8.61832400
H           7.32971800     -6.06047300      6.63757100
H           5.93772700     -5.45139100      5.75314700
H           5.93449000     -7.18348300      8.31638500
H           3.73846700     -7.80999900      7.77190300
H           2.87212900     -7.30324600      5.50510200
H           3.93844600     -5.90575200      5.33396300
H           1.63252600     -6.12997400      7.35526300
H           1.55009500     -5.28068000      5.80989800
H           3.36177100     -3.72496200      6.54403000
H           3.54983900     -4.62503400      8.03466500
H           1.20990400     -4.01004400      8.71756800
H           1.00387800     -3.11299900      7.21314300
H           1.52608500     -1.57455200      9.04321900
H           2.82380000     -1.54923200      7.84184200
H           4.25182600     -2.97709400      9.28173700
H           2.92836000     -3.19821900     10.43230100
H           4.52192500     -1.55790400     11.29956300
H           2.98179400     -0.73732600     10.96087900
H           2.98467600      0.63292200      9.27305100
          52
 G =     -854.406336 Gcorr = 0.372515 a.u. Nimag =   0 Frame:     2 Step:     2 Geom:     2
C           5.34427700      2.35940500      6.42453000
C           4.75838800      1.06031100      5.88467800
C           5.69864400     -0.13105400      6.04965300
C           5.08203600     -1.44899400      5.58930500
C           5.99964500     -2.66873100      5.72725400
C           6.27000600     -3.08520200      7.14859300
C           6.42240900     -4.33637600      7.59982800
C           6.36459800     -5.60799300      6.78897700
C           5.52965200     -6.68122600      7.44080000
C           4.29319000     -7.05888300      7.09743000
C           3.42779300     -6.48520000      6.00977000
C           2.29626600     -5.60640900      6.56731100
C           2.82047200     -4.36077600      7.27125800
C           1.74437700     -3.50259200      7.92760000
C           2.29718800     -2.25720300      8.62424700
C           3.29462300     -2.56600900      9.74114600
C           3.72519100     -1.33745500     10.55387200
C           4.50204500     -0.35759400      9.69682800
O           5.67911000     -0.44781600      9.48576200
O           3.78998500      0.62733500      9.11919200
H           6.28930600      2.61183300      5.91716100
H           5.55354700      2.26741900      7.50105700
H           4.65359500      3.20495200      6.28460500
H           4.49397100      1.17758900      4.81847100
H           3.81504600      0.84354900      6.41436000
H           5.99662800     -0.19866100      7.10848700
H           6.62701000      0.05259600      5.47851500
H           4.77890400     -1.35357000      4.53232300
H           4.14965100     -1.63055300      6.15299200
H           6.96141800     -2.43913200      5.23156200
H           5.56995300     -3.51086800      5.16137500
H           6.36187300     -2.27470900      7.88131200
H           6.62530100     -4.47070400      8.66943600
H           7.39389900     -5.99293400      6.67264100
H           6.00575100     -5.39900600      5.77191000
H           5.99244300     -7.18254300      8.29941900
H           3.82164900     -7.84621200      7.69876100
H           2.98714800     -7.31074900      5.42687500
H           4.02781300     -5.88907000      5.30383000
H           1.68639300     -6.19993100      7.27218000
H           1.62049400     -5.31911000      5.74377400
H           3.38988400     -3.74806400      6.55125900
H           3.55567600     -4.67379900      8.02825400
H           1.18950200     -4.11215300      8.66369600
H           1.00403200     -3.19132000      7.17104200
H           1.45248700     -1.67840400      9.04167900
H           2.77747000     -1.60622400      7.87244100
H           4.19849300     -3.03306700      9.31945700
H           2.85307100     -3.30125300     10.43406000
H           4.39476100     -1.64664000     11.36762500
H           2.84590100     -0.85096700     11.00985800
H           2.85832600      0.55355900      9.35183700
          52
 G =     -854.405481 Gcorr = 0.373380 a.u. Nimag =   0 Frame:     3 Step:     3 Geom:     3
C           6.50784600     -1.21486700      2.31387800
C           7.25644500     -2.28716300      3.09752700
C           6.62022800     -2.58988200      4.45088300
C           7.35942400     -3.65128400      5.25990300
C           6.72877300     -3.95034600      6.62123200
C           5.40566100     -4.67386900      6.54406700
C           4.77579900     -5.26030100      7.57056300
C           5.25783200     -5.30024100      8.99785700
C           4.15031700     -5.04379300      9.98469100
C           4.11732600     -4.10960700     10.93905100
C           5.15306700     -3.06667800     11.25728200
C           4.76103700     -1.68340300     10.71501500
C           4.90087500     -1.57587000      9.19903200
C           4.25461500     -0.32149600      8.61798500
C           4.45348500     -0.14476100      7.11144000
C           3.86596200     -1.23558500      6.21262600
C           2.34206400     -1.38518600      6.26824100
C           1.74905700     -2.06607600      7.49121500
O           0.83833800     -1.61652500      8.12744400
O           2.26145800     -3.26759800      7.80767400
H           6.47331600     -0.26606100      2.87289400
H           5.46760400     -1.52010700      2.11689100
H           6.98517800     -1.01321100      1.34357600
H           8.30327000     -1.97251700      3.25087900
H           7.30508500     -3.21619800      2.50348800
H           5.57271800     -2.90111700      4.29103400
H           6.56715200     -1.65964000      5.04493600
H           8.39935700     -3.31913400      5.41546700
H           7.42375700     -4.58523000      4.67395400
H           6.60122000     -3.00329500      7.17736700
H           7.43323600     -4.55022000      7.22014000
H           4.94367700     -4.75352400      5.55194400
H           3.83637900     -5.79057300      7.37081500
H           6.08692500     -4.59468200      9.14440300
H           5.67083300     -6.31038800      9.18516700
H           3.27251200     -5.69170500      9.87864500
H           3.20409100     -4.05036100     11.54268600
H           6.14293500     -3.34758800     10.86234600
H           5.26483500     -3.00604300     12.35191000
H           5.37688900     -0.90657700     11.19887100
H           3.71596100     -1.46983500     10.99914900
H           4.45034700     -2.47220500      8.74598300
H           5.97335100     -1.59705700      8.93078200
H           4.66912100      0.56543500      9.12695900
H           3.17784500     -0.32210300      8.85928900
H           5.53497700     -0.07510100      6.89891800
H           4.02244500      0.82407100      6.80693600
H           4.35697900     -2.20229400      6.41932500
H           4.13847000     -1.00291800      5.17181900
H           2.00961400     -1.98182400      5.40086500
H           1.85093800     -0.40561500      6.18868000
H           3.04641800     -3.48772100      7.28588700
          52
 G =     -854.406435 Gcorr = 0.371587 a.u. Nimag =   0 Frame:     4 Step:     4 Geom:     4
C          10.05847300     -3.65439400      3.44990900
C           8.89882600     -4.60331000      3.73104800
C           8.05652800     -4.18696000      4.93402400
C           6.89879100     -5.13608100      5.22958100
C           6.03552000     -4.69831400      6.41922400
C           5.27100800     -3.43418800      6.14986300
C           5.43441400     -2.24272300      6.74025600
C           6.43767400     -1.90370200      7.81959600
C           5.90034100     -2.14461300      9.21030900
C           5.41017400     -1.23135000     10.05677700
C           5.22568500      0.24164500      9.81909800
C           3.73733900      0.61132400      9.69803000
C           3.07975700     -0.01423700      8.47165500
C           1.55487700     -0.01343200      8.49049800
C           0.92329900     -0.80872300      7.34308400
C           1.43433300     -2.24696100      7.19527300
C           1.35327100     -3.06570900      8.48842000
C           1.83762900     -4.49571500      8.34030800
O           1.15328900     -5.46132400      8.52197300
O           3.12900600     -4.63875900      7.99037700
H          10.74424200     -3.59879400      4.31031700
H           9.69655900     -2.63325200      3.25006700
H          10.64420000     -3.97816800      2.57673400
H           9.28650100     -5.62393100      3.89451200
H           8.24904600     -4.66764800      2.84095100
H           7.66302600     -3.16803300      4.76937300
H           8.70507300     -4.11910400      5.82684300
H           7.29383500     -6.14637000      5.42854600
H           6.26202500     -5.23061400      4.33182800
H           6.66986100     -4.58951100      7.31358500
H           5.30571000     -5.48987500      6.65434400
H           4.50450000     -3.51133500      5.36816300
H           4.77950000     -1.42207900      6.42744300
H           6.74000900     -0.85305500      7.70193400
H           7.34924200     -2.50580600      7.68189700
H           5.90300000     -3.19232600      9.53450200
H           5.04698800     -1.59166300     11.02746500
H           5.75710300      0.56660600      8.91063500
H           5.66780400      0.80156400     10.65947900
H           3.62706700      1.70802000      9.67815000
H           3.21161400      0.26754400     10.60671800
H           3.43348900     -1.05406600      8.40324600
H           3.44548000      0.48390400      7.55529600
H           1.17529800      1.02163600      8.46476000
H           1.21208100     -0.42772900      9.45492500
H           1.09836500     -0.28194500      6.38984800
H          -0.17031900     -0.82723800      7.48410200
H           2.47437800     -2.23132300      6.82851300
H           0.85127200     -2.75659400      6.41159700
H           0.31814000     -3.11366500      8.85265300
H           1.96083700     -2.59064500      9.27784400
H           3.57398300     -3.79012800      7.84867000
          52
 G =     -854.405759 Gcorr = 0.371889 a.u. Nimag =   0 Frame:     5 Step:     5 Geom:     5
C           7.84244400     -0.99823500      7.22616900
C           6.85101000     -0.50573600      8.27385500
C           5.41911100     -0.38864100      7.75736900
C           4.46871500      0.27044000      8.75329400
C           3.00726700      0.29281200      8.28774100
C           2.80743700      1.10743700      7.04136600
C           2.51838600      0.66279400      5.81412200
C           2.31013900     -0.76643000      5.38825300
C           3.23109600     -1.16319100      4.26379700
C           3.96836300     -2.27490500      4.17115900
C           4.07211200     -3.38836200      5.17387200
C           5.49961300     -3.92711300      5.31886700
C           5.65360300     -4.93004000      6.46446800
C           5.63366600     -4.25821900      7.83576100
C           5.42976500     -5.21467700      9.00544300
C           5.46596000     -4.52346100     10.37098500
C           4.53770300     -3.30235500     10.47708600
C           3.12107100     -3.58327500     10.01165100
O           2.58631100     -3.03502000      9.08885900
O           2.46427600     -4.53854800     10.69414600
H           7.56312900     -1.99368800      6.84820900
H           8.86239700     -1.06940100      7.63304400
H           7.87182600     -0.31791500      6.36066800
H           7.17926400      0.47825200      8.65211400
H           6.86957800     -1.18083400      9.14937600
H           5.03604600     -1.39049900      7.49440900
H           5.41127200      0.18255200      6.81344700
H           4.81384600      1.30082100      8.95530800
H           4.52123900     -0.25786300      9.72135700
H           2.38763600      0.72264800      9.09290800
H           2.66392700     -0.74364900      8.15777800
H           2.94440300      2.18955000      7.16346300
H           2.42562800      1.40588700      5.01201900
H           1.26870700     -0.87376800      5.02958800
H           2.40797300     -1.45136700      6.24113500
H           3.27580300     -0.45540300      3.42675200
H           4.56559600     -2.40807600      3.26010500
H           3.41569600     -4.22254700      4.86356500
H           3.68587100     -3.05928100      6.15120800
H           6.19242200     -3.08247100      5.47691800
H           5.80366100     -4.39454600      4.36737300
H           6.59059200     -5.49968700      6.34620700
H           4.83605300     -5.67087900      6.40674800
H           4.82246500     -3.51535400      7.84750800
H           6.56880900     -3.68884400      7.98014700
H           6.19448000     -6.00915100      8.98655300
H           4.45880100     -5.72709200      8.88184800
H           6.49023400     -4.18166500     10.59200500
H           5.22679000     -5.25910800     11.15962000
H           4.91268800     -2.47384300      9.86372000
H           4.50527800     -2.94363100     11.51978000
H           3.02069300     -4.89452700     11.39567100
