61
Coordinates from ORCA-job PR-101-p Relaxed Surface Scan Step 1 E -83.257727033090
  C      -3.086694      0.833360      0.058912
  C      -1.687013      0.808443     -0.008043
  C      -0.968500      1.965087      0.284019
  C      -1.618956      3.120102      0.675763
  C      -3.000110      3.128921      0.794416
  C      -3.726728      1.995442      0.481457
  C      -3.907182     -0.322939     -0.356147
  C      -3.829003     -0.792449     -1.672556
  C      -4.651463     -1.828026     -2.103013
  C      -5.547490     -2.412966     -1.217670
  C      -5.621049     -1.957403      0.087687
  C      -4.815506     -0.914466      0.514304
  H      -4.634271     -2.124870     -3.146031
  H      -6.307841     -2.420098      0.780259
  P      -0.876345     -0.783538     -0.387396
  C       0.286329     -0.405265     -1.867876
  C       0.074630     -1.170229      1.206481
  C      -0.362778      0.661182     -2.755052
  H       0.227427      0.792716     -3.662258
  H      -1.368214      0.367640     -3.055815
  H      -0.424995      1.621031     -2.248050
  C       1.723437      0.013909     -1.570110
  H       2.243705     -0.728514     -0.970437
  H       2.266050      0.117970     -2.510722
  H       1.757946      0.974188     -1.062512
  C       0.290102     -1.737961     -2.634997
  H      -0.764753     -2.109998     -2.745503
  H       0.690451     -1.621564     -3.643533
  H       0.893051     -2.489880     -2.113452
  C       0.772409     -2.514191      0.965474
  H       0.090252     -3.220877      0.467348
  H       1.668060     -2.398012      0.356405
  H       1.066241     -2.961578      1.913837
  C       1.062217     -0.145432      1.758318
  H       1.866242      0.082041      1.066717
  H       0.554196      0.774952      2.034262
  H       1.509505     -0.557628      2.662947
  C      -1.047116     -1.358567      2.236965
  H      -1.554410     -0.414943      2.436423
  H      -1.785857     -2.081150      1.889608
  H      -0.636418     -1.730051      3.174304
  Pd     -1.763613     -2.801416     -1.390076
  Br     -2.839331     -4.117268      0.320830
  C      -1.877286     -4.469134     -2.498862
  C      -2.886612     -4.795201     -3.386787
  H      -3.829518     -4.261042     -3.383833
  C      -2.700924     -5.845428     -4.276271
  H      -3.488882     -6.096773     -4.972521
  C      -1.523997     -6.572668     -4.263644
  H      -1.388834     -7.393231     -4.953457
  C      -0.528513     -6.263976     -3.352019
  H       0.383799     -6.843185     -3.322465
  C      -0.706904     -5.215356     -2.462372
  H       0.067277     -5.003987     -1.720860
  H       0.106926      1.963983      0.195740
  H      -1.049137      4.011441      0.895268
  H      -3.510330      4.024619      1.117023
  H      -4.805623      2.006139      0.543058
  H      -4.876479     -0.567321      1.535742
  H      -3.213171     -0.258714     -2.391869
  H      -6.183145     -3.223067     -1.544443
61
Coordinates from ORCA-job PR-101-p Relaxed Surface Scan Step 2 E -83.257860680540
  C      -3.083583      0.829929      0.054070
  C      -1.683840      0.808219     -0.011832
  C      -0.968542      1.965624      0.284774
  C      -1.622107      3.118102      0.679022
  C      -3.003370      3.123602      0.796012
  C      -3.726961      1.989225      0.479023
  C      -3.901333     -0.327047     -0.364889
  C      -3.825224     -0.788415     -1.684387
  C      -4.645941     -1.823675     -2.118971
  C      -5.537698     -2.416560     -1.234379
  C      -5.608462     -1.969735      0.074131
  C      -4.804965     -0.926781      0.504755
  H      -4.630673     -2.114080     -3.163842
  H      -6.291778     -2.438872      0.765785
  P      -0.870202     -0.781615     -0.394276
  C       0.299273     -0.397146     -1.867358
  C       0.073390     -1.172199      1.203013
  C      -0.352712      0.665716     -2.756833
  H       0.240670      0.801866     -3.661301
  H      -1.354592      0.364819     -3.062313
  H      -0.423884      1.624904     -2.249752
  C       1.731878      0.031030     -1.561047
  H       2.253976     -0.709153     -0.960223
  H       2.278705      0.140669     -2.498591
  H       1.757594      0.990431     -1.051297
  C       0.316448     -1.728292     -2.636843
  H      -0.734239     -2.105754     -2.758570
  H       0.727109     -1.606868     -3.640567
  H       0.917259     -2.478703     -2.111158
  C       0.777801     -2.512222      0.960181
  H       0.099994     -3.219535      0.457247
  H       1.674964     -2.390207      0.354569
  H       1.070118     -2.961692      1.908022
  C       1.053458     -0.145359      1.764295
  H       1.860712      0.087269      1.078169
  H       0.539982      0.772113      2.039837
  H       1.496952     -0.558458      2.670395
  C      -1.053091     -1.369893      2.226543
  H      -1.565248     -0.429251      2.427670
  H      -1.787090     -2.093811      1.871645
  H      -0.646039     -1.744201      3.164342
  Pd     -1.762839     -2.794598     -1.391898
  Br     -2.829855     -4.138640      0.295644
  C      -1.891856     -4.468347     -2.481756
  C      -2.915689     -4.807381     -3.347936
  H      -3.863957     -4.283532     -3.325639
  C      -2.737182     -5.858080     -4.238217
  H      -3.536446     -6.119122     -4.917794
  C      -1.553048     -6.573634     -4.247217
  H      -1.423466     -7.394816     -4.937351
  C      -0.543046     -6.253034     -3.355873
  H       0.375068     -6.823607     -3.342494
  C      -0.714145     -5.203820     -2.465592
  H       0.071623     -4.983806     -1.738850
  H       0.107009      1.967660      0.198098
  H      -1.054466      4.009995      0.901908
  H      -3.516062      4.017179      1.120558
  H      -4.805945      1.997080      0.539557
  H      -4.864175     -0.585827      1.528388
  H      -3.212371     -0.248690     -2.401700
  H      -6.172599     -3.226166     -1.563989
61
Coordinates from ORCA-job PR-101-p Relaxed Surface Scan Step 3 E -83.257859193500
  C      -3.079782      0.826771      0.048534
  C      -1.680084      0.807932     -0.018905
  C      -0.967314      1.966657      0.278608
  C      -1.623129      3.117407      0.674254
  C      -3.004284      3.119915      0.792199
  C      -3.725558      1.984120      0.474936
  C      -3.895408     -0.332007     -0.370097
  C      -3.825780     -0.786880     -1.692321
  C      -4.645537     -1.823223     -2.126410
  C      -5.529100     -2.423805     -1.238536
  C      -5.592572     -1.983984      0.072704
  C      -4.790562     -0.939558      0.502821
  H      -4.636023     -2.108424     -3.172802
  H      -6.269125     -2.459399      0.766705
  P      -0.864437     -0.780582     -0.403327
  C       0.314206     -0.392092     -1.866997
  C       0.069368     -1.173754      1.199111
  C      -0.342052      0.662802     -2.762793
  H       0.253780      0.800974     -3.665308
  H      -1.340103      0.351868     -3.071198
  H      -0.423562      1.622985     -2.259080
  C       1.740775      0.048655     -1.550849
  H       2.265188     -0.687697     -0.947337
  H       2.292694      0.163770     -2.484726
  H       1.755327      1.007705     -1.040075
  C       0.349029     -1.723803     -2.634669
  H      -0.696742     -2.106049     -2.770887
  H       0.775450     -1.601220     -3.631482
  H       0.943676     -2.471320     -2.098583
  C       0.781175     -2.509794      0.957094
  H       0.109042     -3.218074      0.448260
  H       1.681206     -2.382317      0.356977
  H       1.069789     -2.960660      1.905413
  C       1.040586     -0.144101      1.770300
  H       1.852542      0.092637      1.091121
  H       0.521277      0.771096      2.042574
  H       1.478196     -0.556650      2.679509
  C      -1.063195     -1.380461      2.214106
  H      -1.581362     -0.443091      2.415092
  H      -1.791097     -2.106807      1.851292
  H      -0.661007     -1.756281      3.153402
  Pd     -1.769303     -2.789891     -1.390441
  Br     -2.820851     -4.168015      0.274339
  C      -1.910907     -4.468318     -2.462780
  C      -2.943445     -4.812923     -3.316213
  H      -3.896327     -4.298783     -3.277609
  C      -2.767073     -5.858226     -4.213194
  H      -3.572944     -6.123783     -4.883133
  C      -1.576727     -6.562982     -4.240960
  H      -1.449051     -7.380197     -4.936103
  C      -0.558034     -6.237288     -3.361373
  H       0.365073     -6.799862     -3.362211
  C      -0.726751     -5.193548     -2.464286
  H       0.065467     -4.970502     -1.745546
  H       0.108175      1.971253      0.191615
  H      -1.057204      4.010276      0.897627
  H      -3.518676      4.012105      1.117883
  H      -4.804510      1.989324      0.536643
  H      -4.844537     -0.603376      1.528337
  H      -3.218843     -0.241867     -2.410629
  H      -6.163761     -3.233847     -1.567683
61
Coordinates from ORCA-job PR-101-p Relaxed Surface Scan Step 4 E -83.257727553590
  C      -3.075001      0.819784      0.039536
  C      -1.675366      0.804895     -0.028896
  C      -0.966567      1.965794      0.269743
  C      -1.625764      3.114445      0.665896
  C      -3.006890      3.112945      0.783798
  C      -3.724479      1.974874      0.466391
  C      -3.888391     -0.341308     -0.377725
  C      -3.826748     -0.790304     -1.702558
  C      -4.647120     -1.827105     -2.134970
  C      -5.521788     -2.434574     -1.242663
  C      -5.575952     -2.001566      0.071239
  C      -4.774380     -0.955909      0.499577
  H      -4.644983     -2.107269     -3.182767
  H      -6.245046     -2.482744      0.768495
  P      -0.855342     -0.781501     -0.414238
  C       0.334481     -0.386937     -1.865804
  C       0.066369     -1.175622      1.195160
  C      -0.327749      0.657009     -2.769950
  H       0.270580      0.797045     -3.670475
  H      -1.321054      0.333269     -3.081058
  H      -0.422050      1.618712     -2.271291
  C       1.752553      0.071299     -1.536869
  H       2.280911     -0.660126     -0.930802
  H       2.310515      0.194859     -2.466043
  H       1.751843      1.029318     -1.024095
  C       0.394603     -1.718888     -2.631037
  H      -0.643017     -2.107933     -2.790065
  H       0.844091     -1.593342     -3.617086
  H       0.980078     -2.462626     -2.080824
  C       0.784580     -2.508565      0.956299
  H       0.117577     -3.218248      0.443074
  H       1.687186     -2.377070      0.361011
  H       1.069650     -2.959303      1.905752
  C       1.029047     -0.143579      1.776259
  H       1.847740      0.094511      1.105731
  H       0.504873      0.770735      2.042202
  H       1.457780     -0.554551      2.690412
  C      -1.073069     -1.388691      2.201084
  H      -1.595146     -0.453376      2.401454
  H      -1.796323     -2.115848      1.830381
  H      -0.676970     -1.766790      3.142058
  Pd     -1.782608     -2.785602     -1.383033
  Br     -2.811024     -4.198766      0.263425
  C      -1.940936     -4.468687     -2.437055
  C      -2.982934     -4.821086     -3.275449
  H      -3.942855     -4.322961     -3.214767
  C      -2.805366     -5.855493     -4.184736
  H      -3.618213     -6.127224     -4.843648
  C      -1.605186     -6.541880     -4.238625
  H      -1.476973     -7.350901     -4.943150
  C      -0.577131     -6.209320     -3.372540
  H       0.353883     -6.758241     -3.393269
  C      -0.746609     -5.176657     -2.462895
  H       0.052469     -4.949615     -1.753023
  H       0.108902      1.974023      0.183368
  H      -1.062339      4.008754      0.889862
  H      -3.524046      4.003416      1.109803
  H      -4.803429      1.976394      0.528708
  H      -4.821934     -0.623975      1.526811
  H      -3.226163     -0.240671     -2.422722
  H      -6.157508     -3.244415     -1.570483
61
Coordinates from ORCA-job PR-101-p Relaxed Surface Scan Step 5 E -83.257461364170
  C      -3.073641      0.821293      0.037192
  C      -1.673884      0.807383     -0.030384
  C      -0.965892      1.967923      0.271502
  C      -1.626106      3.115289      0.669753
  C      -3.007297      3.112760      0.786489
  C      -3.724085      1.974980      0.466188
  C      -3.885621     -0.340096     -0.382250
  C      -3.825074     -0.785379     -1.708377
  C      -4.642804     -1.823753     -2.141983
  C      -5.514489     -2.435717     -1.249691
  C      -5.567896     -2.006092      0.065337
  C      -4.768336     -0.959430      0.495006
  H      -4.640515     -2.102327     -3.190287
  H      -6.234700     -2.490776      0.762351
  P      -0.853212     -0.777419     -0.420433
  C       0.339947     -0.378634     -1.868044
  C       0.063478     -1.179059      1.189919
  C      -0.321700      0.667198     -2.770378
  H       0.276922      0.809245     -3.670374
  H      -1.314871      0.343870     -3.082420
  H      -0.416431      1.627789     -2.269626
  C       1.756965      0.079409     -1.534620
  H       2.283973     -0.653185     -0.928792
  H       2.317200      0.205324     -2.462096
  H       1.754707      1.036227     -1.019566
  C       0.401548     -1.708687     -2.636380
  H      -0.636112     -2.096724     -2.796262
  H       0.852316     -1.581902     -3.621582
  H       0.985768     -2.453489     -2.086300
  C       0.783839     -2.510175      0.947741
  H       0.118088     -3.218673      0.431097
  H       1.687275     -2.375820      0.354405
  H       1.067749     -2.963846      1.896158
  C       1.022577     -0.148177      1.778689
  H       1.842836      0.093910      1.111441
  H       0.496125      0.764340      2.046395
  H       1.449174     -0.562001      2.692541
  C      -1.079420     -1.399238      2.190372
  H      -1.604070     -0.466011      2.393659
  H      -1.799785     -2.125909      1.812584
  H      -0.686445     -1.781670      3.130905
  Pd     -1.780445     -2.781173     -1.386135
  Br     -2.805282     -4.221789      0.233167
  C      -1.945633     -4.473521     -2.419687
  C      -2.992619     -4.829477     -3.250524
  H      -3.953920     -4.335179     -3.181551
  C      -2.818032     -5.863220     -4.160892
  H      -3.634692     -6.138050     -4.813746
  C      -1.615657     -6.545245     -4.223643
  H      -1.489989     -7.354463     -4.928370
  C      -0.582201     -6.208253     -3.365805
  H       0.350909     -6.753258     -3.393903
  C      -0.748068     -5.175637     -2.455427
  H       0.055286     -4.945704     -1.751463
  H       0.109639      1.976849      0.186056
  H      -1.063429      4.009467      0.896152
  H      -3.525175      4.002279      1.113987
  H      -4.803080      1.975726      0.527875
  H      -4.815076     -0.630219      1.523166
  H      -3.226498     -0.232767     -2.427864
  H      -6.148875     -3.246305     -1.578354
61
Coordinates from ORCA-job PR-101-p Relaxed Surface Scan Step 6 E -83.257210299930
  C      -3.060558      0.792336      0.004860
  C      -1.660907      0.788617     -0.065145
  C      -0.965286      1.958117      0.231654
  C      -1.635280      3.102396      0.622466
  C      -3.016237      3.089393      0.738659
  C      -3.721880      1.942677      0.426077
  C      -3.867124     -0.377509     -0.402823
  C      -3.826672     -0.817002     -1.732513
  C      -4.646040     -1.859926     -2.154686
  C      -5.495365     -2.482723     -1.247243
  C      -5.525626     -2.060773      0.070998
  C      -4.726903     -1.008104      0.489132
  H      -4.662430     -2.133400     -3.204196
  H      -6.174183     -2.554259      0.779046
  P      -0.822928     -0.792454     -0.443038
  C       0.404098     -0.381327     -1.854428
  C       0.059345     -1.177344      1.191841
  C      -0.277645      0.618109     -2.793691
  H       0.328807      0.758793     -3.688446
  H      -1.253611      0.248917     -3.110894
  H      -0.415396      1.586911     -2.319074
  C       1.789604      0.141048     -1.484792
  H       2.334406     -0.571890     -0.871244
  H       2.364125      0.296168     -2.398930
  H       1.735822      1.094084     -0.966181
  C       0.557308     -1.715055     -2.601507
  H      -0.444221     -2.125276     -2.853835
  H       1.098216     -1.582015     -3.538828
  H       1.099913     -2.444653     -1.994714
  C       0.795855     -2.503234      0.974096
  H       0.146478     -3.220012      0.449997
  H       1.708267     -2.363842      0.396075
  H       1.066403     -2.947687      1.930744
  C       0.997053     -0.135271      1.795171
  H       1.838165      0.098406      1.151661
  H       0.461128      0.780311      2.031976
  H       1.394471     -0.534499      2.728475
  C      -1.100443     -1.398928      2.172023
  H      -1.628952     -0.466120      2.366830
  H      -1.813408     -2.126287      1.781797
  H      -0.723902     -1.781882      3.119065
  Pd     -1.847742     -2.781432     -1.337416
  Br     -2.767659     -4.296127      0.287514
  C      -2.052707     -4.467143     -2.362410
  C      -3.126028     -4.855196     -3.143109
  H      -4.109748     -4.428885     -2.995401
  C      -2.941864     -5.838526     -4.106011
  H      -3.777649     -6.137960     -4.722701
  C      -1.706403     -6.441268     -4.266150
  H      -1.574276     -7.211703     -5.011835
  C      -0.647107     -6.079033     -3.451061
  H       0.312309     -6.566505     -3.551890
  C      -0.822088     -5.098385     -2.486360
  H       0.001019     -4.855604     -1.809468
  H       0.109978      1.977530      0.148505
  H      -1.079815      4.002323      0.843905
  H      -3.542244      3.976224      1.060394
  H      -4.800833      1.932978      0.488681
  H      -4.757980     -0.681978      1.518945
  H      -3.245214     -0.256898     -2.460376
  H      -6.133154     -3.294415     -1.567273
61
Coordinates from ORCA-job PR-101-p Relaxed Surface Scan Step 7 E -83.256821255950
  C      -3.057347      0.786927     -0.003040
  C      -1.657788      0.784928     -0.075468
  C      -0.963964      1.956103      0.218872
  C      -1.635008      3.100309      0.608199
  C      -3.015785      3.085827      0.725627
  C      -3.719854      1.937225      0.416433
  C      -3.864245     -0.384729     -0.405228
  C      -3.831089     -0.825178     -1.734956
  C      -4.652494     -1.868711     -2.151558
  C      -5.496407     -2.491140     -1.238626
  C      -5.518927     -2.068807      0.079629
  C      -4.718186     -1.015410      0.492334
  H      -4.674358     -2.143890     -3.200507
  H      -6.163372     -2.561899      0.791714
  P      -0.817194     -0.795258     -0.452034
  C       0.417231     -0.382662     -1.855394
  C       0.055264     -1.179847      1.188475
  C      -0.265087      0.610949     -2.800336
  H       0.341585      0.747865     -3.695525
  H      -1.240291      0.237922     -3.115794
  H      -0.404875      1.582025     -2.331022
  C       1.797750      0.147220     -1.477691
  H       2.343206     -0.564003     -0.862678
  H       2.376050      0.306959     -2.388616
  H       1.736760      1.098968     -0.957618
  C       0.583166     -1.716654     -2.599000
  H      -0.411879     -2.123747     -2.874511
  H       1.146287     -1.584315     -3.523212
  H       1.109778     -2.447551     -1.980191
  C       0.796195     -2.503859      0.975697
  H       0.150180     -3.222507      0.450216
  H       1.710324     -2.363006      0.400833
  H       1.064239     -2.946264      1.934021
  C       0.986193     -0.135266      1.797714
  H       1.832496      0.097770      1.160790
  H       0.447029      0.780289      2.027307
  H       1.376037     -0.531550      2.735451
  C      -1.110213     -1.405250      2.160974
  H      -1.639482     -0.473132      2.356815
  H      -1.821187     -2.130728      1.762895
  H      -0.739504     -1.792705      3.108485
  Pd     -1.857584     -2.780561     -1.324178
  Br     -2.761278     -4.329866      0.276343
  C      -2.072883     -4.473258     -2.330485
  C      -3.147709     -4.861410     -3.108950
  H      -4.135994     -4.453168     -2.943172
  C      -2.957015     -5.823369     -4.091983
  H      -3.793572     -6.123296     -4.707350
  C      -1.714117     -6.403924     -4.274746
  H      -1.577469     -7.157349     -5.036793
  C      -0.652909     -6.042300     -3.461660
  H       0.312820     -6.512927     -3.580232
  C      -0.834017     -5.084311     -2.475695
  H      -0.010394     -4.844640     -1.798411
  H       0.111196      1.977201      0.135195
  H      -1.080360      4.001250      0.827562
  H      -3.542824      3.972553      1.045943
  H      -4.798725      1.925947      0.480525
  H      -4.743828     -0.688481      1.522060
  H      -3.252858     -0.265746     -2.466034
  H      -6.136451     -3.302754     -1.554497
61
Coordinates from ORCA-job PR-101-p Relaxed Surface Scan Step 8 E -83.256332880640
  C      -3.053744      0.781315     -0.012862
  C      -1.654229      0.781035     -0.086018
  C      -0.962645      1.954010      0.206547
  C      -1.635339      3.098178      0.593150
  C      -3.016097      3.082208      0.709955
  C      -3.718128      1.931618      0.403628
  C      -3.860214     -0.392596     -0.409784
  C      -3.833596     -0.834271     -1.739438
  C      -4.656254     -1.879182     -2.150292
  C      -5.494154     -2.501889     -1.231779
  C      -5.509469     -2.078967      0.086361
  C      -4.707787     -1.023952      0.493408
  H      -4.683061     -2.156407     -3.198581
  H      -6.149180     -2.572343      0.802548
  P      -0.810226     -0.798271     -0.460125
  C       0.432384     -0.384194     -1.854568
  C       0.051586     -1.181965      1.186409
  C      -0.252378      0.600087     -2.807482
  H       0.355741      0.735007     -3.701940
  H      -1.224643      0.219021     -3.122845
  H      -0.399182      1.573115     -2.344331
  C       1.806117      0.157345     -1.468688
  H       2.353311     -0.549447     -0.850104
  H       2.388499      0.320975     -2.376299
  H       1.735280      1.108830     -0.949507
  C       0.615452     -1.718821     -2.592692
  H      -0.371828     -2.131525     -2.882030
  H       1.192155     -1.584737     -3.508139
  H       1.136042     -2.445869     -1.964935
  C       0.797498     -2.503789      0.978738
  H       0.155813     -3.224081      0.450440
  H       1.713949     -2.360746      0.408218
  H       1.061944     -2.944784      1.938723
  C       0.975057     -0.134589      1.801922
  H       1.826376      0.098491      1.171724
  H       0.432302      0.780616      2.024514
  H       1.357399     -0.528028      2.743930
  C      -1.119835     -1.411483      2.150705
  H      -1.650008     -0.480133      2.347572
  H      -1.828569     -2.134913      1.744215
  H      -0.755442     -1.803732      3.098687
  Pd     -1.869130     -2.779600     -1.309062
  Br     -2.751677     -4.367453      0.267937
  C      -2.096054     -4.480150     -2.297206
  C      -3.174230     -4.869663     -3.070581
  H      -4.166840     -4.482429     -2.882870
  C      -2.979172     -5.807407     -4.075713
  H      -3.817968     -6.108389     -4.687451
  C      -1.728872     -6.362660     -4.285740
  H      -1.588907     -7.097152     -5.065408
  C      -0.664064     -6.000874     -3.477338
  H       0.307716     -6.452885     -3.616935
  C      -0.848941     -5.067760     -2.468436
  H      -0.022867     -4.831381     -1.793049
  H       0.112489      1.976734      0.123832
  H      -1.081879      4.000243      0.810906
  H      -3.544601      3.968916      1.027891
  H      -4.796985      1.918584      0.467918
  H      -4.728536     -0.695643      1.522835
  H      -3.259159     -0.275526     -2.474060
  H      -6.135958     -3.313829     -1.543506
61
Coordinates from ORCA-job PR-101-p Relaxed Surface Scan Step 9 E -83.255749948890
  C      -3.050931      0.777706     -0.019576
  C      -1.651547      0.778409     -0.095692
  C      -0.961080      1.952755      0.194123
  C      -1.634254      3.097255      0.578892
  C      -3.014819      3.080500      0.697371
  C      -3.715933      1.928315      0.395111
  C      -3.857735     -0.397953     -0.410655
  C      -3.836188     -0.842164     -1.739778
  C      -4.660440     -1.887907     -2.145274
  C      -5.493015     -2.510338     -1.221506
  C      -5.502341     -2.085785      0.096058
  C      -4.700206     -1.028910      0.497587
  H      -4.691467     -2.167290     -3.192844
  H      -6.137826     -2.579159      0.816088
  P      -0.805730     -0.800776     -0.467642
  C       0.443879     -0.387380     -1.855027
  C       0.047300     -1.183611      1.183685
  C      -0.243667      0.586971     -2.816120
  H       0.366295      0.720577     -3.709462
  H      -1.212461      0.197212     -3.132009
  H      -0.398571      1.561651     -2.359007
  C       1.811526      0.165404     -1.463398
  H       2.360272     -0.535677     -0.839753
  H       2.397460      0.330057     -2.368540
  H       1.731987      1.118040     -0.947715
  C       0.642119     -1.723378     -2.586501
  H      -0.338832     -2.144128     -2.882185
  H       1.225638     -1.587838     -3.497294
  H       1.162060     -2.444798     -1.952308
  C       0.798495     -2.502933      0.980139
  H       0.161461     -3.224396      0.447998
  H       1.717459     -2.356970      0.414524
  H       1.058929     -2.943478      1.941431
  C       0.963243     -0.133138      1.804772
  H       1.818080      0.101491      1.179907
  H       0.416410      0.780963      2.022083
  H       1.340156     -0.524182      2.749947
  C      -1.129141     -1.418374      2.140593
  H      -1.661785     -0.488578      2.337961
  H      -1.834481     -2.141204      1.726423
  H      -0.770053     -1.814097      3.089145
  Pd     -1.877668     -2.778494     -1.297215
  Br     -2.743228     -4.405032      0.255874
  C      -2.113744     -4.489757     -2.265350
  C      -3.192274     -4.873115     -3.042017
  H      -4.187801     -4.501541     -2.839495
  C      -2.991837     -5.785204     -4.069241
  H      -3.830268     -6.080995     -4.683968
  C      -1.736532     -6.322036     -4.297739
  H      -1.592268     -7.036379     -5.095098
  C      -0.671848     -5.968044     -3.485670
  H       0.303692     -6.407033     -3.639719
  C      -0.861369     -5.060995     -2.453937
  H      -0.035992     -4.833685     -1.774865
  H       0.113912      1.976441      0.110906
  H      -1.081181      4.000192      0.794029
  H      -3.543797      3.967497      1.013714
  H      -4.794656      1.914077      0.461477
  H      -4.717475     -0.698158      1.526320
  H      -3.264275     -0.285031     -2.477625
  H      -6.136392     -3.322763     -1.529016
61
Coordinates from ORCA-job PR-101-p Relaxed Surface Scan Step 10 E -83.255083419440
  C      -3.048308      0.773422     -0.026989
  C      -1.649070      0.774966     -0.105721
  C      -0.959455      1.950294      0.182220
  C      -1.632795      3.094986      0.566197
  C      -3.013205      3.077699      0.685905
  C      -3.713586      1.924339      0.386521
  C      -3.856316     -0.403543     -0.412140
  C      -3.842112     -0.850412     -1.740308
  C      -4.668717     -1.897028     -2.138843
  C      -5.497184     -2.516662     -1.209451
  C      -5.499388     -2.089388      0.107375
  C      -4.694173     -1.032283      0.502142
  H      -4.704850     -2.179682     -3.185369
  H      -6.131783     -2.580361      0.831743
  P      -0.801618     -0.803657     -0.476901
  C       0.454484     -0.390589     -1.857459
  C       0.042867     -1.187397      1.178789
  C      -0.235436      0.575707     -2.825111
  H       0.375527      0.708261     -3.717866
  H      -1.201433      0.178653     -3.140747
  H      -0.396627      1.551699     -2.372922
  C       1.816823      0.171692     -1.461024
  H       2.367485     -0.525631     -0.834792
  H       2.405027      0.339129     -2.364147
  H       1.729935      1.124183     -0.946390
  C       0.665412     -1.727373     -2.583887
  H      -0.310125     -2.156167     -2.882792
  H       1.252784     -1.589735     -3.491802
  H       1.186892     -2.443402     -1.945461
  C       0.795811     -2.506013      0.978586
  H       0.160486     -3.227526      0.444377
  H       1.716274     -2.359437      0.415653
  H       1.053590     -2.946079      1.940847
  C       0.954889     -0.136144      1.804256
  H       1.813581      0.097368      1.184245
  H       0.406809      0.778448      2.016432
  H       1.325858     -0.525574      2.752458
  C      -1.138064     -1.423839      2.129501
  H      -1.669303     -0.493710      2.328910
  H      -1.843521     -2.142811      1.707941
  H      -0.784340     -1.825235      3.077693
  Pd     -1.886975     -2.778818     -1.282707
  Br     -2.746739     -4.436904      0.246797
  C      -2.131059     -4.504186     -2.226846
  C      -3.206291     -4.877369     -3.013321
  H      -4.205192     -4.522646     -2.798600
  C      -2.995764     -5.759489     -4.064316
  H      -3.830861     -6.047647     -4.687045
  C      -1.734347     -6.275980     -4.307017
  H      -1.582596     -6.967159     -5.123117
  C      -0.673063     -5.931942     -3.486222
  H       0.307349     -6.355213     -3.652560
  C      -0.871445     -5.055274     -2.429992
  H      -0.049730     -4.838695     -1.743423
  H       0.115424      1.974784      0.098456
  H      -1.079862      3.998372      0.779797
  H      -3.542562      3.964747      1.001456
  H      -4.792231      1.909327      0.454389
  H      -4.705769     -0.699167      1.530220
  H      -3.273089     -0.296127     -2.482581
  H      -6.143058     -3.328976     -1.512120
61
Coordinates from ORCA-job PR-101-p Relaxed Surface Scan Step 11 E -83.254389736300
  C      -3.045500      0.767588     -0.034665
  C      -1.646469      0.769597     -0.117671
  C      -0.957327      1.946483      0.165089
  C      -1.630267      3.092302      0.546434
  C      -3.010351      3.074875      0.669118
  C      -3.710435      1.919755      0.376023
  C      -3.855481     -0.410987     -0.410993
  C      -3.849255     -0.863122     -1.737572
  C      -4.680060     -1.909772     -2.127024
  C      -5.503916     -2.524799     -1.190439
  C      -5.497951     -2.092654      0.124769
  C      -4.688972     -1.035055      0.510590
  H      -4.722197     -2.197105     -3.172005
  H      -6.126975     -2.579858      0.854665
  P      -0.797347     -0.809113     -0.485749
  C       0.464227     -0.398613     -1.860866
  C       0.038554     -1.190833      1.174903
  C      -0.228256      0.558011     -2.836277
  H       0.383162      0.687271     -3.729152
  H      -1.191939      0.153606     -3.149998
  H      -0.394899      1.536268     -2.390963
  C       1.821464      0.173222     -1.460599
  H       2.373125     -0.518914     -0.829491
  H       2.412565      0.340486     -2.361836
  H       1.727727      1.127005     -0.949692
  C       0.687246     -1.737352     -2.579762
  H      -0.282965     -2.173707     -2.881477
  H       1.279073     -1.599542     -3.484665
  H       1.209346     -2.447277     -1.935598
  C       0.793421     -2.509001      0.980494
  H       0.159115     -3.231696      0.446624
  H       1.714756     -2.363296      0.418850
  H       1.049549     -2.946237      1.944514
  C       0.945772     -0.137530      1.803523
  H       1.809244      0.092959      1.188963
  H       0.396437      0.778277      2.007181
  H       1.309290     -0.522868      2.756275
  C      -1.147365     -1.428599      2.119012
  H      -1.677139     -0.498114      2.320377
  H      -1.852756     -2.143383      1.689170
  H      -0.799801     -1.836059      3.066900
  Pd     -1.898531     -2.781447     -1.262459
  Br     -2.755195     -4.475066      0.241894
  C      -2.149964     -4.520725     -2.183309
  C      -3.218827     -4.878571     -2.986174
  H      -4.222433     -4.544902     -2.760545
  C      -2.993605     -5.719562     -4.067180
  H      -3.823100     -5.995231     -4.702850
  C      -1.724768     -6.211050     -4.324124
  H      -1.562016     -6.870609     -5.163815
  C      -0.670343     -5.883697     -3.487615
  H       0.315868     -6.288129     -3.665853
  C      -0.882327     -5.048672     -2.400568
  H      -0.067176     -4.848785     -1.701610
  H       0.117342      1.971442      0.079508
  H      -1.077190      3.996623      0.755686
  H      -3.539608      3.962790      0.982397
  H      -4.788899      1.904135      0.446837
  H      -4.694939     -0.697370      1.537267
  H      -3.282476     -0.313516     -2.485057
  H      -6.152997     -3.337071     -1.486491
61
Coordinates from ORCA-job PR-101-p Relaxed Surface Scan Step 12 E -83.253798970620
  C      -3.042267      0.759691     -0.045451
  C      -1.643511      0.761616     -0.133200
  C      -0.954588      1.940563      0.141554
  C      -1.626751      3.088656      0.517405
  C      -3.006516      3.071869      0.642973
  C      -3.706532      1.914381      0.359400
  C      -3.854900     -0.421278     -0.408764
  C      -3.858546     -0.882399     -1.732377
  C      -4.694661     -1.929534     -2.108840
  C      -5.513044     -2.536825     -1.162409
  C      -5.497060     -2.096151      0.149876
  C      -4.683272     -1.037556      0.522803
  H      -4.744262     -2.224367     -3.151345
  H      -6.122162     -2.577074      0.887360
  P      -0.792955     -0.818004     -0.495282
  C       0.475588     -0.412153     -1.864135
  C       0.032450     -1.195184      1.171831
  C      -0.219278      0.532266     -2.849714
  H       0.392898      0.656444     -3.742733
  H      -1.180319      0.119331     -3.160813
  H      -0.391972      1.513623     -2.413577
  C       1.827037      0.170699     -1.460159
  H       2.379547     -0.514862     -0.822635
  H       2.421504      0.336395     -2.359449
  H       1.725854      1.126606     -0.954839
  C       0.712314     -1.753777     -2.572766
  H      -0.251953     -2.199297     -2.876096
  H       1.308352     -1.616752     -3.474920
  H       1.235667     -2.455702     -1.921520
  C       0.788374     -2.513805      0.986411
  H       0.154801     -3.238168      0.453933
  H       1.710923     -2.370677      0.426208
  H       1.042065     -2.946434      1.953190
  C       0.935122     -0.139339      1.802341
  H       1.804558      0.085466      1.194055
  H       0.385480      0.778854      1.994259
  H       1.289159     -0.518584      2.761096
  C      -1.159455     -1.431595      2.108605
  H      -1.686603     -0.499818      2.310582
  H      -1.865434     -2.141410      1.670297
  H      -0.819528     -1.844799      3.056787
  Pd     -1.912790     -2.787107     -1.237540
  Br     -2.766122     -4.519214      0.244241
  C      -2.171684     -4.543268     -2.132430
  C      -3.233622     -4.882154     -2.952989
  H      -4.243145     -4.578867     -2.712306
  C      -2.989342     -5.664684     -4.072808
  H      -3.811911     -5.924698     -4.723821
  C      -1.710316     -6.118241     -4.349768
  H      -1.533029     -6.731397     -5.221022
  C      -0.663860     -5.812518     -3.495154
  H       0.330394     -6.188176     -3.690606
  C      -0.893223     -5.037124     -2.367956
  H      -0.085576     -4.858875     -1.655136
  H       0.119870      1.965492      0.054260
  H      -1.073231      3.994208      0.720094
  H      -3.535459      3.961604      0.951593
  H      -4.784801      1.898609      0.433403
  H      -4.682221     -0.692349      1.547044
  H      -3.294635     -0.339946     -2.487304
  H      -6.166156     -3.349404     -1.448820
61
Coordinates from ORCA-job PR-101-p Relaxed Surface Scan Step 13 E -83.253423244630
  C      -3.039188      0.751483     -0.054891
  C      -1.640600      0.754420     -0.146148
  C      -0.952748      1.934794      0.125236
  C      -1.625022      3.083201      0.499965
  C      -3.004498      3.065636      0.627899
  C      -3.703651      1.906653      0.348495
  C      -3.853541     -0.430660     -0.410805
  C      -3.863367     -0.897556     -1.732612
  C      -4.703685     -1.944254     -2.100929
  C      -5.519731     -2.545523     -1.148570
  C      -5.497374     -2.099567      0.161797
  C      -4.679365     -1.041389      0.526821
  H      -4.757525     -2.244456     -3.141673
  H      -6.120784     -2.575797      0.903848
  P      -0.787434     -0.824552     -0.506028
  C       0.486072     -0.419712     -1.869290
  C       0.029209     -1.200136      1.166043
  C      -0.210582      0.517453     -2.860489
  H       0.402061      0.639618     -3.753416
  H      -1.169640      0.098720     -3.170177
  H      -0.387793      1.500172     -2.429220
  C       1.833104      0.170544     -1.461377
  H       2.386093     -0.511338     -0.820321
  H       2.430176      0.336825     -2.358816
  H       1.726341      1.127013     -0.958373
  C       0.732641     -1.762251     -2.572467
  H      -0.227353     -2.215024     -2.875448
  H       1.330090     -1.624129     -3.473431
  H       1.258598     -2.458532     -1.917791
  C       0.784655     -2.519625      0.986503
  H       0.150149     -3.244360      0.455792
  H       1.707452     -2.379222      0.426108
  H       1.037411     -2.949066      1.954981
  C       0.929290     -0.144026      1.799433
  H       1.803863      0.075793      1.196658
  H       0.380605      0.776472      1.982871
  H       1.275042     -0.519884      2.762548
  C      -1.167781     -1.435523      2.096507
  H      -1.691030     -0.502287      2.301548
  H      -1.875627     -2.138601      1.649287
  H      -0.834820     -1.856654      3.043688
  Pd     -1.925905     -2.788508     -1.219197
  Br     -2.779264     -4.554612      0.244609
  C      -2.194722     -4.564352     -2.083098
  C      -3.249739     -4.889702     -2.918715
  H      -4.264464     -4.614044     -2.667739
  C      -2.988146     -5.624015     -4.066441
  H      -3.804291     -5.873660     -4.729457
  C      -1.700062     -6.042867     -4.357309
  H      -1.509973     -6.618551     -5.251069
  C      -0.660908     -5.750700     -3.489179
  H       0.340544     -6.099597     -3.697001
  C      -0.905838     -5.024616     -2.332584
  H      -0.104984     -4.863329     -1.608645
  H       0.121515      1.960711      0.036384
  H      -1.071754      3.989519      0.699949
  H      -3.533802      3.955540      0.935431
  H      -4.781755      1.889875      0.424933
  H      -4.673787     -0.691517      1.549513
  H      -3.300604     -0.360164     -2.492057
  H      -6.176507     -3.357275     -1.429167
61
Coordinates from ORCA-job PR-101-p Relaxed Surface Scan Step 14 E -83.253322348000
  C      -3.035916      0.740980     -0.067711
  C      -1.637471      0.744430     -0.160866
  C      -0.950633      1.926850      0.104316
  C      -1.623208      3.077033      0.472992
  C      -3.002608      3.059536      0.601089
  C      -3.700817      1.898270      0.329125
  C      -3.851786     -0.443604     -0.412306
  C      -3.867146     -0.920868     -1.730571
  C      -4.712096     -1.967797     -2.087709
  C      -5.526450     -2.559436     -1.127853
  C      -5.498237     -2.103746      0.179036
  C      -4.675780     -1.045156      0.532969
  H      -4.770152     -2.276539     -3.125698
  H      -6.120643     -2.572326      0.926893
  P      -0.781348     -0.834438     -0.514787
  C       0.496434     -0.431794     -1.873773
  C       0.026062     -1.205046      1.162913
  C      -0.200156      0.499368     -2.870639
  H       0.412728      0.616915     -3.763977
  H      -1.158642      0.077393     -3.177778
  H      -0.378697      1.484336     -2.445166
  C       1.840209      0.163221     -1.462096
  H       2.391945     -0.515566     -0.816668
  H       2.440619      0.328189     -2.357523
  H       1.729483      1.120809     -0.962150
  C       0.749627     -1.775655     -2.571595
  H      -0.207490     -2.232046     -2.875425
  H       1.350064     -1.638239     -3.470584
  H       1.274959     -2.468136     -1.912751
  C       0.782276     -2.524919      0.991228
  H       0.147036     -3.251465      0.464094
  H       1.704680     -2.387483      0.429540
  H       1.035316     -2.949115      1.961982
  C       0.922023     -0.146704      1.797974
  H       1.801720      0.068039      1.200798
  H       0.373233      0.775767      1.970988
  H       1.259360     -0.517071      2.766204
  C      -1.176426     -1.439709      2.086359
  H      -1.697389     -0.505518      2.292593
  H      -1.884579     -2.137683      1.630377
  H      -0.850738     -1.866824      3.033413
  Pd     -1.937306     -2.791876     -1.198560
  Br     -2.792946     -4.598729      0.250262
  C      -2.218724     -4.590923     -2.028490
  C      -3.266717     -4.897979     -2.880492
  H      -4.287006     -4.658677     -2.615944
  C      -2.986667     -5.567047     -4.062766
  H      -3.796025     -5.800640     -4.739731
  C      -1.688690     -5.941669     -4.371563
  H      -1.484900     -6.466646     -5.293000
  C      -0.657158     -5.670723     -3.487608
  H       0.352065     -5.986268     -3.710426
  C      -0.918659     -5.009514     -2.295940
  H      -0.124751     -4.871332     -1.560180
  H       0.123608      1.952888      0.015551
  H      -1.070264      3.984630      0.668063
  H      -3.532516      3.950861      0.903461
  H      -4.778866      1.881121      0.406604
  H      -4.666055     -0.687059      1.552837
  H      -3.305590     -0.390802     -2.496190
  H      -6.186941     -3.371057     -1.400226
61
Coordinates from ORCA-job PR-101-p Relaxed Surface Scan Step 15 E -83.253557182480
  C      -3.032609      0.727641     -0.081885
  C      -1.634334      0.731949     -0.177566
  C      -0.948861      1.916766      0.080490
  C      -1.621898      3.068703      0.442803
  C      -3.001163      3.050953      0.571632
  C      -3.698119      1.887075      0.307983
  C      -3.850192     -0.459398     -0.414163
  C      -3.871417     -0.948468     -1.728247
  C      -4.722118     -1.994936     -2.073060
  C      -5.535351     -2.575113     -1.105324
  C      -5.500867     -2.108406      0.197483
  C      -4.673120     -1.049885      0.539170
  H      -4.784670     -2.313084     -3.107908
  H      -6.122753     -2.567870      0.951533
  P      -0.774589     -0.846638     -0.524802
  C       0.507921     -0.445762     -1.878948
  C       0.023132     -1.210621      1.159089
  C      -0.187931      0.480278     -2.881047
  H       0.425050      0.592799     -3.774926
  H      -1.146356      0.056056     -3.185374
  H      -0.366769      1.467529     -2.461134
  C       1.848808      0.152876     -1.463219
  H       2.398805     -0.523596     -0.813867
  H       2.452594      0.316636     -2.356576
  H       1.734950      1.111359     -0.965772
  C       0.766708     -1.790711     -2.572183
  H      -0.188005     -2.249052     -2.877772
  H       1.371014     -1.654100     -3.468608
  H       1.289934     -2.480533     -1.909208
  C       0.779505     -2.531397      0.997152
  H       0.143169     -3.260091      0.474626
  H       1.701526     -2.398139      0.433929
  H       1.032722     -2.948997      1.970755
  C       0.915381     -0.149728      1.794725
  H       1.800542      0.058638      1.203328
  H       0.367092      0.775198      1.955878
  H       1.243632     -0.513506      2.768581
  C      -1.185037     -1.442684      2.075674
  H      -1.703037     -0.506935      2.282003
  H      -1.893922     -2.135440      1.611634
  H      -0.867008     -1.874897      3.023047
  Pd     -1.946936     -2.797528     -1.179061
  Br     -2.806888     -4.641015      0.259238
  C      -2.244897     -4.622890     -1.970973
  C      -3.284578     -4.908133     -2.841245
  H      -4.310123     -4.708676     -2.565156
  C      -2.984516     -5.501906     -4.057919
  H      -3.785868     -5.717329     -4.750192
  C      -1.676143     -5.824522     -4.383007
  H      -1.457136     -6.290267     -5.332295
  C      -0.653494     -5.577700     -3.481969
  H       0.363968     -5.853607     -3.719526
  C      -0.932758     -4.992956     -2.254107
  H      -0.146313     -4.882793     -1.506386
  H       0.125307      1.943304     -0.008646
  H      -1.069432      3.977791      0.632273
  H      -3.531844      3.943665      0.868553
  H      -4.776086      1.869286      0.386883
  H      -4.659050     -0.682486      1.555731
  H      -3.310135     -0.427634     -2.500561
  H      -6.200173     -3.386264     -1.368644
61
Coordinates from ORCA-job PR-101-p Relaxed Surface Scan Step 16 E -83.254161856130
  C      -3.028717      0.710969     -0.094643
  C      -1.630679      0.717852     -0.194209
  C      -0.947594      1.905307      0.058103
  C      -1.621821      3.057515      0.417305
  C      -3.000733      3.037629      0.548867
  C      -3.695486      1.871010      0.291831
  C      -3.847998     -0.477613     -0.417305
  C      -3.872448     -0.977563     -1.727892
  C      -4.731158     -2.020509     -2.063730
  C      -5.547324     -2.587867     -1.090911
  C      -5.508470     -2.111929      0.208244
  C      -4.673502     -1.056228      0.541150
  H      -4.796341     -2.346974     -3.095786
  H      -6.132879     -2.561558      0.966297
  P      -0.765253     -0.858711     -0.537601
  C       0.520670     -0.456163     -1.887083
  C       0.023135     -1.217460      1.151907
  C      -0.174393      0.467526     -2.891708
  H       0.438593      0.577084     -3.785920
  H      -1.132975      0.042238     -3.194119
  H      -0.353161      1.456014     -2.474808
  C       1.859110      0.144391     -1.466351
  H       2.407200     -0.531506     -0.814803
  H       2.466129      0.308839     -2.357384
  H       1.742595      1.102655     -0.969121
  C       0.783680     -1.800863     -2.578800
  H      -0.169327     -2.259731     -2.886297
  H       1.391386     -1.663738     -3.472759
  H       1.304565     -2.489837     -1.913367
  C       0.779733     -2.538879      0.998253
  H       0.140876     -3.269685      0.482323
  H       1.699870     -2.409920      0.431069
  H       1.035572     -2.949517      1.974154
  C       0.911515     -0.154847      1.789605
  H       1.802466      0.047430      1.204771
  H       0.364023      0.772437      1.939461
  H       1.229959     -0.512956      2.768818
  C      -1.190644     -1.448801      2.061234
  H      -1.706191     -0.512172      2.269313
  H      -1.899704     -2.135873      1.587832
  H      -0.880162     -1.887619      3.008109
  Pd     -1.954870     -2.799484     -1.167585
  Br     -2.830070     -4.678687      0.269729
  C      -2.275499     -4.656141     -1.910740
  C      -3.305066     -4.922005     -2.800018
  H      -4.335795     -4.762242     -2.518571
  C      -2.982799     -5.439686     -4.045008
  H      -3.774231     -5.638210     -4.753492
  C      -1.663995     -5.708446     -4.378935
  H      -1.428192     -6.115539     -5.350871
  C      -0.652394     -5.483498     -3.460417
  H       0.372973     -5.719117     -3.707541
  C      -0.950626     -4.973705     -2.202705
  H      -0.173447     -4.892226     -1.442445
  H       0.126347      1.933602     -0.033064
  H      -1.070651      3.968365      0.602126
  H      -3.532779      3.930491      0.842937
  H      -4.773233      1.851296      0.373524
  H      -4.656682     -0.680875      1.554819
  H      -3.309437     -0.465451     -2.505036
  H      -6.218404     -3.396009     -1.347839
61
Coordinates from ORCA-job PR-101-p Relaxed Surface Scan Step 17 E -83.255141890970
  C      -3.024044      0.692830     -0.109951
  C      -1.626139      0.702756     -0.211174
  C      -0.946194      1.892874      0.037196
  C      -1.622534      3.045128      0.392193
  C      -3.001374      3.022871      0.523499
  C      -3.693089      1.853379      0.271698
  C      -3.844202     -0.497874     -0.422917
  C      -3.870769     -1.010351     -1.729083
  C      -4.737482     -2.049976     -2.055369
  C      -5.557983     -2.602632     -1.077846
  C      -5.515680     -2.115920      0.217124
  C      -4.673385     -1.063097      0.540545
  H      -4.804796     -2.385739     -3.084293
  H      -6.143530     -2.554190      0.979094
  P      -0.754186     -0.871323     -0.550303
  C       0.536263     -0.465284     -1.893772
  C       0.023791     -1.224712      1.145019
  C      -0.158493      0.455003     -2.901686
  H       0.454970      0.562348     -3.795807
  H      -1.116400      0.027244     -3.202861
  H      -0.338829      1.444553     -2.488144
  C       1.871228      0.138968     -1.467473
  H       2.417874     -0.535548     -0.813267
  H       2.481724      0.304516     -2.355915
  H       1.750766      1.097026     -0.970823
  C       0.805659     -1.809255     -2.584008
  H      -0.145166     -2.270267     -2.892661
  H       1.415752     -1.670403     -3.476003
  H       1.326139     -2.496303     -1.916557
  C       0.782475     -2.545621      0.999715
  H       0.143483     -3.278797      0.488034
  H       1.701815     -2.419021      0.430827
  H       1.039416     -2.950065      1.977947
  C       0.906620     -0.159322      1.785417
  H       1.802445      0.039551      1.206860
  H       0.358204      0.768948      1.925547
  H       1.216662     -0.512362      2.769176
  C      -1.196080     -1.456526      2.045928
  H      -1.710500     -0.519524      2.254838
  H      -1.903958     -2.138870      1.562858
  H      -0.893470     -1.901059      2.992721
  Pd     -1.959299     -2.801840     -1.162483
  Br     -2.850590     -4.715248      0.280472
  C      -2.308199     -4.692757     -1.851501
  C      -3.329136     -4.940108     -2.756825
  H      -4.363718     -4.823901     -2.469083
  C      -2.989172     -5.378082     -4.026944
  H      -3.772717     -5.560129     -4.748410
  C      -1.661556     -5.587633     -4.370995
  H      -1.412122     -5.931721     -5.363617
  C      -0.658678     -5.384007     -3.438637
  H       0.373552     -5.575161     -3.695637
  C      -0.971968     -4.952625     -2.154065
  H      -0.201224     -4.901355     -1.385188
  H       0.127709      1.923099     -0.053413
  H      -1.073138      3.957688      0.573912
  H      -3.535612      3.915668      0.813821
  H      -4.770774      1.831553      0.354090
  H      -4.654435     -0.678541      1.550771
  H      -3.305402     -0.508329     -2.511496
  H      -6.235266     -3.407714     -1.328180
61
Coordinates from ORCA-job PR-101-p Relaxed Surface Scan Step 18 E -83.256414934370
  C      -3.018842      0.675308     -0.124873
  C      -1.621099      0.689326     -0.227556
  C      -0.945069      1.882605      0.016397
  C      -1.624392      3.034405      0.367126
  C      -3.003106      3.008664      0.498429
  C      -3.690994      1.835836      0.251957
  C      -3.838705     -0.518010     -0.428922
  C      -3.867223     -1.041678     -1.731001
  C      -4.740764     -2.078575     -2.048621
  C      -5.564596     -2.618465     -1.066853
  C      -5.519012     -2.122270      0.224366
  C      -4.670586     -1.071686      0.539101
  H      -4.810324     -2.422555     -3.074688
  H      -6.149444     -2.550623      0.989918
  P      -0.742061     -0.881800     -0.562749
  C       0.554361     -0.471240     -1.898306
  C       0.023680     -1.231184      1.138889
  C      -0.138557      0.446552     -2.909690
  H       0.476461      0.551962     -3.802945
  H      -1.095700      0.017084     -3.211027
  H      -0.320407      1.437005     -2.499114
  C       1.885376      0.136082     -1.464252
  H       2.429485     -0.537552     -0.807009
  H       2.500649      0.303202     -2.349084
  H       1.760391      1.093624     -0.967739
  C       0.830460     -1.814262     -2.587351
  H      -0.117880     -2.275957     -2.900486
  H       1.445840     -1.673832     -3.475402
  H       1.347485     -2.500635     -1.916726
  C       0.786622     -2.550243      1.001697
  H       0.149873     -3.286430      0.492393
  H       1.706121     -2.423963      0.433112
  H       1.043392     -2.949114      1.982278
  C       0.898679     -0.162408      1.784079
  H       1.799909      0.034702      1.213285
  H       0.348131      0.766015      1.914510
  H       1.199356     -0.510859      2.772382
  C      -1.203072     -1.466071      2.029501
  H      -1.717710     -0.529575      2.239839
  H      -1.908243     -2.144023      1.535357
  H      -0.908848     -1.917022      2.975919
  Pd     -1.960605     -2.801914     -1.164553
  Br     -2.862088     -4.750801      0.285656
  C      -2.337799     -4.725644     -1.799287
  C      -3.353857     -4.960216     -2.714688
  H      -4.389942     -4.885342     -2.419064
  C      -3.005270     -5.326793     -4.004278
  H      -3.785103     -5.497214     -4.732502
  C      -1.672379     -5.479808     -4.360476
  H      -1.416091     -5.767807     -5.369051
  C      -0.673282     -5.290792     -3.421726
  H       0.363297     -5.439175     -3.689619
  C      -0.993248     -4.929066     -2.115952
  H      -0.223261     -4.903768     -1.345322
  H       0.128732      1.915545     -0.074161
  H      -1.077512      3.949161      0.545417
  H      -3.540167      3.901019      0.784932
  H      -4.768601      1.811220      0.334970
  H      -4.649734     -0.678893      1.546153
  H      -3.300354     -0.548295     -2.518285
  H      -6.247116     -3.420948     -1.311388
61
Coordinates from ORCA-job PR-101-p Relaxed Surface Scan Step 19 E -83.257800578650
  C      -3.014324      0.662478     -0.137609
  C      -1.616695      0.679720     -0.240590
  C      -0.943976      1.875454      0.000514
  C      -1.625985      3.026879      0.347242
  C      -3.004702      2.998424      0.477359
  C      -3.689324      1.822907      0.234747
  C      -3.833389     -0.533298     -0.434532
  C      -3.865072     -1.064236     -1.733863
  C      -4.743242     -2.099651     -2.044328
  C      -5.567326     -2.631574     -1.058447
  C      -5.517406     -2.129464      0.230302
  C      -4.664902     -1.080004      0.537887
  H      -4.816097     -2.448822     -3.068416
  H      -6.147985     -2.551601      0.999231
  P      -0.732157     -0.889086     -0.572868
  C       0.569833     -0.474668     -1.901098
  C       0.022892     -1.236473      1.133785
  C      -0.121458      0.440258     -2.916151
  H       0.495203      0.543933     -3.808454
  H      -1.077645      0.008801     -3.217893
  H      -0.305248      1.431546     -2.508565
  C       1.897093      0.135939     -1.460335
  H       2.438960     -0.536276     -0.799788
  H       2.516723      0.303906     -2.341956
  H       1.767789      1.093410     -0.964788
  C       0.852330     -1.817168     -2.588263
  H      -0.093616     -2.279839     -2.905512
  H       1.472638     -1.675713     -3.472687
  H       1.366269     -2.502494     -1.914360
  C       0.791693     -2.552487      1.002294
  H       0.159317     -3.291207      0.491935
  H       1.712532     -2.423854      0.436512
  H       1.046574     -2.948330      1.984606
  C       0.889023     -0.163991      1.784537
  H       1.794198      0.034651      1.220486
  H       0.334681      0.763106      1.908306
  H       1.182729     -0.509481      2.775975
  C      -1.209690     -1.477076      2.014727
  H      -1.726998     -0.542281      2.225872
  H      -1.910403     -2.153192      1.510925
  H      -0.922027     -1.932609      2.960975
  Pd     -1.961424     -2.800721     -1.169296
  Br     -2.867046     -4.781797      0.280862
  C      -2.360256     -4.753697     -1.756876
  C      -3.373190     -4.975796     -2.680607
  H      -4.409394     -4.932342     -2.379044
  C      -3.022045     -5.285888     -3.983582
  H      -3.800598     -5.445706     -4.715529
  C      -1.686959     -5.396794     -4.349259
  H      -1.428094     -5.641172     -5.368608
  C      -0.689272     -5.220616     -3.407103
  H       0.349297     -5.337036     -3.683327
  C      -1.010806     -4.913101     -2.086780
  H      -0.239411     -4.908947     -1.317306
  H       0.129840      1.910547     -0.088801
  H      -1.081236      3.943345      0.523308
  H      -3.544238      3.890422      0.760341
  H      -4.766912      1.795935      0.317607
  H      -4.641424     -0.681718      1.542745
  H      -3.298815     -0.576293     -2.525314
  H      -6.253564     -3.432356     -1.298228
61
Coordinates from ORCA-job PR-101-p Relaxed Surface Scan Step 20 E -83.259084334320
  C      -3.010530      0.652400     -0.146462
  C      -1.613032      0.672884     -0.250131
  C      -0.943227      1.870402     -0.009746
  C      -1.627638      3.020676      0.336064
  C      -3.006277      2.989297      0.465952
  C      -3.688027      1.811863      0.224661
  C      -3.828843     -0.544846     -0.440074
  C      -3.863925     -1.077981     -1.738676
  C      -4.746141     -2.111099     -2.045876
  C      -5.570164     -2.639052     -1.057809
  C      -5.515806     -2.135998      0.230380
  C      -4.659522     -1.088628      0.534815
  H      -4.822117     -2.461665     -3.069259
  H      -6.146114     -2.555218      1.001145
  P      -0.724072     -0.893508     -0.582437
  C       0.581613     -0.474985     -1.905066
  C       0.023503     -1.241495      1.127275
  C      -0.109429      0.437830     -2.922137
  H       0.508733      0.542379     -3.813279
  H      -1.063976      0.003562     -3.225183
  H      -0.296556      1.428924     -2.515620
  C       1.905648      0.138918     -1.459313
  H       2.446157     -0.531713     -0.796056
  H       2.528530      0.307642     -2.338490
  H       1.772458      1.096400     -0.964809
  C       0.869625     -1.816560     -2.591506
  H      -0.074529     -2.281838     -2.909202
  H       1.490847     -1.673204     -3.474956
  H       1.384371     -2.500196     -1.916672
  C       0.798018     -2.554165      0.997740
  H       0.170074     -3.293894      0.483950
  H       1.720328     -2.421615      0.435376
  H       1.050701     -2.949967      1.980643
  C       0.881860     -0.166348      1.783721
  H       1.789226      0.035996      1.224455
  H       0.323431      0.758668      1.904780
  H       1.171582     -0.511240      2.776537
  C      -1.212995     -1.489243      2.000682
  H      -1.733601     -0.556741      2.213657
  H      -1.909391     -2.164358      1.488834
  H      -0.929529     -1.949009      2.946143
  Pd     -1.963156     -2.797753     -1.175148
  Br     -2.878138     -4.803526      0.270854
  C      -2.380514     -4.776572     -1.717649
  C      -3.388194     -4.985080     -2.652595
  H      -4.425105     -4.962024     -2.350772
  C      -3.033385     -5.254182     -3.963032
  H      -3.809564     -5.403670     -4.699671
  C      -1.696517     -5.337971     -4.330992
  H      -1.434031     -5.550896     -5.356449
  C      -0.702208     -5.173986     -3.383574
  H       0.337925     -5.269903     -3.662144
  C      -1.027228     -4.905618     -2.054785
  H      -0.256422     -4.919661     -1.284915
  H       0.130528      1.907727     -0.098628
  H      -1.084858      3.938418      0.511596
  H      -3.547947      3.880314      0.747975
  H      -4.765549      1.782530      0.307809
  H      -4.633251     -0.688905      1.539041
  H      -3.298490     -0.592280     -2.532328
  H      -6.259900     -3.437427     -1.295727
61
Coordinates from ORCA-job PR-101-p Relaxed Surface Scan Step 21 E -83.260036007210
  C      -3.006996      0.643775     -0.154425
  C      -1.609609      0.666913     -0.258409
  C      -0.942251      1.865935     -0.018693
  C      -1.628732      3.015292      0.326059
  C      -3.007325      2.981512      0.455512
  C      -3.686658      1.802461      0.215371
  C      -3.824521     -0.554804     -0.445326
  C      -3.863372     -1.088860     -1.743653
  C      -4.748776     -2.120250     -2.048046
  C      -5.571650     -2.645878     -1.057764
  C      -5.512589     -2.142976      0.230270
  C      -4.653336     -1.097207      0.532024
  H      -4.828149     -2.471304     -3.071002
  H      -6.141749     -2.560594      1.002837
  P      -0.717155     -0.897564     -0.590730
  C       0.591739     -0.475665     -1.908527
  C       0.023993     -1.246240      1.121523
  C      -0.099149      0.435143     -2.927485
  H       0.520388      0.540547     -3.817556
  H      -1.052137     -0.001793     -3.231751
  H      -0.289408      1.426050     -2.521976
  C       1.912934      0.141245     -1.458580
  H       2.452116     -0.527639     -0.792492
  H       2.538783      0.310089     -2.335622
  H       1.776342      1.099032     -0.965592
  C       0.884601     -1.816456     -2.594231
  H      -0.057872     -2.283848     -2.912999
  H       1.507122     -1.671488     -3.476490
  H       1.399549     -2.498809     -1.918384
  C       0.805135     -2.554932      0.993389
  H       0.182286     -3.296051      0.476035
  H       1.728830     -2.417576      0.434564
  H       1.055884     -2.950870      1.976733
  C       0.874161     -0.167983      1.783353
  H       1.782854      0.039417      1.228036
  H       0.310824      0.754258      1.902958
  H       1.161345     -0.512684      2.776964
  C      -1.215684     -1.502063      1.988036
  H      -1.740665     -0.572351      2.202299
  H      -1.907121     -2.177561      1.469280
  H      -0.935313     -1.964857      2.932925
  Pd     -1.964933     -2.795005     -1.181713
  Br     -2.888692     -4.823501      0.257450
  C      -2.399853     -4.795844     -1.681692
  C      -3.401749     -4.992046     -2.628194
  H      -4.439496     -4.987024     -2.327695
  C      -3.043621     -5.225695     -3.943926
  H      -3.817535     -5.366440     -4.684698
  C      -1.705372     -5.285665     -4.312759
  H      -1.439531     -5.471466     -5.342627
  C      -0.714545     -5.131855     -3.360442
  H       0.326962     -5.210036     -3.639801
  C      -1.043300     -4.897151     -2.025520
  H      -0.272860     -4.927405     -1.255644
  H       0.131464      1.905100     -0.106992
  H      -1.087615      3.934108      0.501126
  H      -3.550809      3.871758      0.736497
  H      -4.764133      1.771167      0.298581
  H      -4.624043     -0.696943      1.535941
  H      -3.299514     -0.604313     -2.539331
  H      -6.264232     -3.442301     -1.294079
