75
Coordinates from ORCA-job PR-102-n_MEP E -4338.954563843600
  C      -2.075540      2.424273      1.066459
  C      -0.666273      2.526163      1.230890
  C      -0.157440      3.654537      1.904766
  C      -0.974540      4.659217      2.416356
  C      -2.356652      4.556624      2.259764
  C      -2.884020      3.453642      1.595071
  C      -2.837936      1.328019      0.395895
  C      -2.642383      0.967607     -0.945275
  C      -3.456321      0.009072     -1.559663
  C      -4.472737     -0.620785     -0.838673
  C      -4.684864     -0.265045      0.498244
  C      -3.884096      0.703999      1.101055
  H      -3.296658     -0.238772     -2.612033
  H      -5.478634     -0.746006      1.075770
  P       0.589916      1.281087      0.662670
  C       1.437093      2.187283     -0.820178
  C       1.884954      1.087217      2.099455
  C       0.417718      2.277972     -1.965993
  H       0.907508      2.758585     -2.829412
  H       0.066596      1.293698     -2.289834
  H      -0.444200      2.904390     -1.691744
  C       1.871062      3.633345     -0.513700
  H       2.593361      3.716823      0.303807
  H       2.356393      4.031066     -1.420972
  H       1.012938      4.282653     -0.294633
  C       2.655961      1.379067     -1.298922
  H       2.394933      0.344036     -1.543115
  H       3.051067      1.853497     -2.213037
  H       3.471061      1.366001     -0.563313
  C       2.486968     -0.320571      1.913946
  H       1.714263     -1.101581      1.965848
  H       3.012702     -0.421173      0.953672
  H       3.219806     -0.503545      2.717538
  C       3.048554      2.094107      2.138292
  H       2.725026      3.127433      2.320529
  H       3.696236      1.812192      2.985433
  H       3.673793      2.076189      1.237524
  C       1.170616      1.148217      3.460870
  H       0.849070      2.166771      3.715970
  H       0.297490      0.486063      3.503744
  H       1.886078      0.823231      4.235442
  Pd     -0.461083     -0.793525      0.344634
  Br     -1.539886     -1.074012      2.755381
  N      -1.606197     -2.626225     -0.030782
  C       0.487271     -1.251708     -1.354737
  C      -0.084067     -1.097908     -2.624937
  H      -1.023057     -0.556480     -2.746096
  C       0.525213     -1.648767     -3.760809
  H       0.060133     -1.511350     -4.741847
  C       1.714045     -2.373731     -3.643613
  H       2.189651     -2.803931     -4.529251
  C       2.281266     -2.552407     -2.377521
  H       3.204307     -3.129051     -2.265708
  C       1.671748     -1.999097     -1.246111
  H       2.131332     -2.163558     -0.269701
  C      -0.874938     -3.825259     -0.283404
  C      -0.819865     -4.364938     -1.572127
  H      -1.372954     -3.884402     -2.381937
  C      -0.041116     -5.497536     -1.820723
  H       0.002567     -5.907581     -2.833127
  C       0.680642     -6.100890     -0.786629
  H       1.290476     -6.986148     -0.983385
  C       0.614707     -5.562262      0.504313
  H       1.172687     -6.027252      1.321482
  C      -0.155803     -4.426727      0.758376
  H      -0.196448     -3.990715      1.759481
  H      -2.261075     -2.410017     -0.783326
  H      -2.131853     -2.672008      0.846679
  H       0.914865      3.755133      2.048604
  H      -0.528670      5.512459      2.933205
  H      -3.022855      5.331403      2.647710
  H      -3.964992      3.381348      1.458665
  H      -4.051770      0.965750      2.146836
  H      -1.877387      1.467459     -1.530739
  H      -5.105766     -1.372664     -1.317368
75
Coordinates from ORCA-job PR-102-n_MEP E -4338.954380948808
  C      -2.074811      2.432861      1.072085
  C      -0.665464      2.541254      1.225984
  C      -0.154729      3.680325      1.880244
  C      -0.971901      4.690083      2.381281
  C      -2.354839      4.580869      2.236663
  C      -2.883350      3.466773      1.591422
  C      -2.833622      1.324515      0.418805
  C      -2.650781      0.960207     -0.923295
  C      -3.467478     -0.004842     -1.522909
  C      -4.470353     -0.637359     -0.785658
  C      -4.666837     -0.278967      0.552747
  C      -3.863722      0.696193      1.142019
  H      -3.318963     -0.256398     -2.575777
  H      -5.447122     -0.764289      1.143534
  P       0.592359      1.292292      0.668461
  C       1.438642      2.183067     -0.822109
  C       1.880145      1.113215      2.111010
  C       0.418275      2.261374     -1.968104
  H       0.908923      2.731016     -2.836936
  H       0.064454      1.274696     -2.280994
  H      -0.442579      2.892351     -1.700614
  C       1.871613      3.630768     -0.531232
  H       2.592005      3.723851      0.285927
  H       2.358180      4.017502     -1.441430
  H       1.014955      4.283084     -0.320120
  C       2.660172      1.372946     -1.290101
  H       2.404925      0.334109     -1.522342
  H       3.053646      1.837967     -2.209454
  H       3.474556      1.372297     -0.553544
  C       2.493378     -0.291434      1.939811
  H       1.726824     -1.078175      1.994005
  H       3.025658     -0.395428      0.983420
  H       3.222781     -0.462187      2.749350
  C       3.035632      2.127045      2.148491
  H       2.706153      3.159538      2.319550
  H       3.680328      1.856921      3.000611
  H       3.665452      2.106748      1.251792
  C       1.153588      1.180069      3.465167
  H       0.823008      2.198243      3.709373
  H       0.284184      0.513039      3.505645
  H       1.862819      0.864290      4.248764
  Pd     -0.457318     -0.798682      0.357774
  Br     -1.524806     -1.107842      2.768983
  N      -1.603299     -2.630967     -0.047918
  C       0.503879     -1.254331     -1.326062
  C      -0.058297     -1.116065     -2.601496
  H      -0.998704     -0.579370     -2.736742
  C       0.561099     -1.675385     -3.728067
  H       0.104991     -1.549999     -4.716893
  C       1.748483     -2.401075     -3.594952
  H       2.235365     -2.835823     -4.473890
  C       2.308035     -2.565810     -2.322777
  H       3.231908     -3.141558     -2.199651
  C       1.686530     -2.002752     -1.201660
  H       2.138738     -2.159418     -0.221452
  C      -0.893109     -3.837380     -0.327448
  C      -0.851710     -4.358659     -1.626452
  H      -1.409684     -3.865635     -2.423844
  C      -0.080610     -5.492518     -1.898578
  H      -0.052820     -5.890861     -2.916772
  C       0.645229     -6.115912     -0.879888
  H       1.246758     -7.002657     -1.095413
  C       0.592766     -5.595601      0.419449
  H       1.150267     -6.080765      1.225530
  C      -0.168237     -4.460345      0.696530
  H      -0.197488     -4.040285      1.705427
  H      -2.256317     -2.395785     -0.796446
  H      -2.132495     -2.693331      0.826157
  H       0.917822      3.786953      2.017995
  H      -0.526318      5.552927      2.881189
  H      -3.021433      5.359321      2.616425
  H      -3.964616      3.387132      1.463375
  H      -4.018842      0.962615      2.188696
  H      -1.897645      1.464971     -1.520418
  H      -5.104228     -1.395538     -1.252250
75
Coordinates from ORCA-job PR-102-n_MEP E -4338.953857330467
  C      -2.073112      2.441983      1.077647
  C      -0.663842      2.557453      1.220358
  C      -0.152521      3.707505      1.854804
  C      -0.970225      4.721925      2.344983
  C      -2.353867      4.605587      2.212017
  C      -2.882870      3.479835      1.587487
  C      -2.828633      1.322052      0.442840
  C      -2.659498      0.953609     -0.900673
  C      -3.479226     -0.018631     -1.484443
  C      -4.467760     -0.653404     -0.729832
  C      -4.647510     -0.291465      0.609453
  C      -3.842606      0.689787      1.183940
  H      -3.342607     -0.274043     -2.537691
  H      -5.414379     -0.781505      1.214213
  P       0.594051      1.303308      0.674130
  C       1.440098      2.178665     -0.824096
  C       1.875157      1.139450      2.121976
  C       0.418693      2.244396     -1.970136
  H       0.909513      2.703185     -2.844512
  H       0.062182      1.255452     -2.272133
  H      -0.441186      2.879624     -1.709404
  C       1.872617      3.629192     -0.549586
  H       2.592073      3.731099      0.267229
  H       2.360022      4.003383     -1.464292
  H       1.016371      4.284186     -0.346269
  C       2.664284      1.366401     -1.281386
  H       2.414673      0.323756     -1.501583
  H       3.056479      1.822170     -2.205750
  H       3.477716      1.378742     -0.543751
  C       2.499603     -0.261554      1.965193
  H       1.739678     -1.054150      2.021636
  H       3.038462     -0.368666      1.013029
  H       3.225336     -0.420215      2.780299
  C       3.023329      2.160929      2.158447
  H       2.686672      3.192722      2.318404
  H       3.664183      1.901260      3.016423
  H       3.657600      2.137475      1.264959
  C       1.136412      1.210971      3.469047
  H       0.796449      2.228417      3.702784
  H       0.271258      0.538159      3.507361
  H       1.839757      0.905032      4.261404
  Pd     -0.451773     -0.798995      0.373320
  Br     -1.511421     -1.142047      2.783296
  N      -1.602386     -2.639215     -0.067865
  C       0.519777     -1.257622     -1.295645
  C      -0.032421     -1.135030     -2.576242
  H      -0.972968     -0.601215     -2.726048
  C       0.598563     -1.702320     -3.692181
  H       0.151763     -1.589452     -4.688700
  C       1.784277     -2.427668     -3.542953
  H       2.281454     -2.869791     -4.414285
  C       2.334335     -2.578922     -2.264658
  H       3.258186     -3.153431     -2.129032
  C       1.700041     -2.007268     -1.153835
  H       2.144495     -2.154260     -0.170071
  C      -0.910767     -3.851312     -0.375134
  C      -0.882181     -4.354180     -1.683966
  H      -1.445624     -3.847581     -2.468844
  C      -0.118806     -5.488113     -1.978428
  H      -0.107098     -5.873696     -3.001716
  C       0.610905     -6.130286     -0.975531
  H       1.202652     -7.018619     -1.209460
  C       0.570565     -5.630829      0.330773
  H       1.126347     -6.134589      1.126920
  C      -0.180475     -4.496415      0.632972
  H      -0.199978     -4.091700      1.648596
  H      -2.252139     -2.382652     -0.813977
  H      -2.133819     -2.718208      0.804346
  H       0.920302      3.820341      1.984776
  H      -0.524287      5.594423      2.827337
  H      -3.020236      5.387590      2.584936
  H      -3.964773      3.393735      1.468522
  H      -3.983763      0.960672      2.231947
  H      -1.918567      1.462107     -1.509326
  H      -5.103007     -1.417532     -1.184369
75
Coordinates from ORCA-job PR-102-n_MEP E -4338.952889936424
  C      -2.070345      2.452886      1.083669
  C      -0.661158      2.576115      1.213663
  C      -0.150424      3.738537      1.826688
  C      -0.969741      4.756853      2.304872
  C      -2.353708      4.632256      2.184398
  C      -2.881977      3.494014      1.583098
  C      -2.822060      1.320556      0.468728
  C      -2.669950      0.947212     -0.875338
  C      -3.492213     -0.032482     -1.441393
  C      -4.464500     -0.669824     -0.667589
  C      -4.625137     -0.304524      0.672655
  C      -3.817862      0.684234      1.230778
  H      -3.369726     -0.292462     -2.495350
  H      -5.376479     -0.798973      1.292942
  P       0.594826      1.313723      0.679468
  C       1.441827      2.174167     -0.826529
  C       1.869610      1.168565      2.133068
  C       0.419519      2.226702     -1.972552
  H       0.910033      2.673832     -2.852985
  H       0.060115      1.235401     -2.262638
  H      -0.439135      2.866438     -1.718833
  C       1.874438      3.628552     -0.569680
  H       2.593890      3.739710      0.246474
  H       2.362713      3.988281     -1.490078
  H       1.018107      4.286677     -0.375434
  C       2.668979      1.359806     -1.272543
  H       2.425107      0.313146     -1.479702
  H       3.060298      1.805740     -2.202012
  H       3.481341      1.386459     -0.533878
  C       2.506048     -0.228094      1.992256
  H       1.753372     -1.027121      2.051231
  H       3.052208     -0.338309      1.044923
  H       3.227842     -0.373429      2.812970
  C       3.010338      2.198944      2.168108
  H       2.665484      3.229967      2.316100
  H       3.646441      1.950264      3.032990
  H       3.649838      2.171093      1.278025
  C       1.117566      1.244744      3.472400
  H       0.768457      2.261487      3.694989
  H       0.256375      0.566193      3.507780
  H       1.814249      0.949132      4.274219
  Pd     -0.445635     -0.796861      0.392083
  Br     -1.496609     -1.183846      2.800469
  N      -1.606103     -2.654780     -0.092179
  C       0.536566     -1.264575     -1.260738
  C      -0.004092     -1.155649     -2.546371
  H      -0.943620     -0.623897     -2.711299
  C       0.640054     -1.731587     -3.651176
  H       0.203083     -1.633474     -4.653295
  C       1.826393     -2.453956     -3.483660
  H       2.330758     -2.908120     -4.344510
  C       2.363858     -2.591924     -2.197600
  H       3.286065     -3.164686     -2.047876
  C       1.714848     -2.011630     -1.099097
  H       2.150995     -2.146203     -0.110452
  C      -0.929759     -3.868943     -0.432407
  C      -0.915191     -4.351459     -1.746421
  H      -1.484992     -3.830704     -2.521015
  C      -0.161959     -5.484999     -2.068244
  H      -0.165261     -5.856479     -3.095056
  C       0.573458     -6.147481     -1.080271
  H       1.155612     -7.035412     -1.334834
  C       0.545550     -5.671718      0.231979
  H       1.099807     -6.193249      1.017758
  C      -0.195797     -4.537363      0.562761
  H      -0.206083     -4.151243      1.584098
  H      -2.250577     -2.371825     -0.836395
  H      -2.135420     -2.748937      0.778500
  H       0.922619      3.857880      1.946959
  H      -0.522998      5.639351      2.768481
  H      -3.019464      5.417632      2.551428
  H      -3.964796      3.401149      1.474688
  H      -3.942510      0.959118      2.279543
  H      -1.941544      1.459269     -1.497265
  H      -5.101861     -1.439864     -1.108543
75
Coordinates from ORCA-job PR-102-n_MEP E -4338.950949347711
  C      -2.064607      2.468481      1.091375
  C      -0.656460      2.601892      1.204141
  C      -0.147383      3.780199      1.788506
  C      -0.969930      4.803373      2.252440
  C      -2.354516      4.666997      2.149244
  C      -2.880475      3.512527      1.577751
  C      -2.811976      1.320104      0.503452
  C      -2.683066      0.940818     -0.841579
  C      -3.509147     -0.048610     -1.384048
  C      -4.459036     -0.689174     -0.585383
  C      -4.592731     -0.320303      0.757315
  C      -3.781536      0.678535      1.292175
  H      -3.406818     -0.314282     -2.438843
  H      -5.322652     -0.820195      1.397274
  P       0.595058      1.327410      0.685514
  C       1.445819      2.170517     -0.830797
  C       1.863011      1.207586      2.146146
  C       0.422145      2.205863     -1.976131
  H       0.911383      2.637881     -2.864599
  H       0.059488      1.211248     -2.249844
  H      -0.435020      2.850932     -1.730838
  C       1.878853      3.629317     -0.596468
  H       2.599103      3.753521      0.217604
  H       2.368233      3.970646     -1.523374
  H       1.023239      4.292397     -0.415471
  C       2.676215      1.352878     -1.262074
  H       2.438446      0.301605     -1.452258
  H       3.067125      1.785374     -2.197988
  H       3.487346      1.397203     -0.522564
  C       2.514833     -0.183009      2.026286
  H       1.770751     -0.989450      2.089215
  H       3.069815     -0.297165      1.084912
  H       3.231909     -0.310667      2.853723
  C       2.994101      2.249742      2.179052
  H       2.639922      3.279881      2.311745
  H       3.624293      2.016415      3.052661
  H       3.641556      2.215897      1.294359
  C       1.094121      1.289109      3.475463
  H       0.733458      2.304723      3.684197
  H       0.238028      0.603012      3.505937
  H       1.782283      1.007017      4.289215
  Pd     -0.444064     -0.796580      0.417005
  Br     -1.476923     -1.253507      2.822877
  N      -1.620582     -2.684987     -0.135756
  C       0.558306     -1.275446     -1.211235
  C       0.033170     -1.180284     -2.503822
  H      -0.904202     -0.648910     -2.683389
  C       0.694137     -1.768164     -3.591203
  H       0.265488     -1.690217     -4.599688
  C       1.878947     -2.485519     -3.398841
  H       2.390206     -2.959734     -4.246363
  C       2.399559     -2.607664     -2.105422
  H       3.319207     -3.181160     -1.935131
  C       1.735426     -2.017207     -1.022364
  H       2.159607     -2.132974     -0.026113
  C      -0.957274     -3.895375     -0.508887
  C      -0.959363     -4.354265     -1.836162
  H      -1.537145     -3.821213     -2.595035
  C      -0.215000     -5.485721     -2.184736
  H      -0.232954     -5.839485     -3.219014
  C       0.526141     -6.171167     -1.219760
  H       1.104021     -7.053791     -1.496646
  C       0.510915     -5.723609      0.105586
  H       1.065796     -6.265327      0.874982
  C      -0.222209     -4.592709      0.463984
  H      -0.225795     -4.231498      1.495814
  H      -2.259991     -2.370126     -0.871952
  H      -2.142617     -2.794666      0.738300
  H       0.925335      3.910474      1.896058
  H      -0.524233      5.698058      2.692512
  H      -3.020599      5.455260      2.509203
  H      -3.963553      3.409746      1.483898
  H      -3.883650      0.957824      2.342474
  H      -1.971705      1.456274     -1.481053
  H      -5.099584     -1.466573     -1.007564
75
Coordinates from ORCA-job PR-102-n_MEP E -4338.945694152282
  C      -2.053567      2.494373      1.102685
  C      -0.647221      2.644870      1.188288
  C      -0.142651      3.846955      1.728897
  C      -0.971834      4.874294      2.173831
  C      -2.356704      4.718785      2.098149
  C      -2.876683      3.540991      1.570583
  C      -2.792008      1.321076      0.557322
  C      -2.700639      0.932250     -0.789107
  C      -3.532369     -0.071170     -1.294515
  C      -4.447306     -0.715873     -0.457984
  C      -4.536386     -0.341721      0.886826
  C      -3.720910      0.671321      1.385912
  H      -3.461815     -0.345528     -2.349853
  H      -5.233832     -0.849422      1.556471
  P       0.597690      1.352218      0.691980
  C       1.455473      2.169425     -0.838715
  C       1.855500      1.269398      2.163737
  C       0.429462      2.179035     -1.982320
  H       0.915016      2.588283     -2.883528
  H       0.063942      1.178936     -2.229623
  H      -0.426699      2.830048     -1.749087
  C       1.890016      3.634499     -0.639293
  H       2.611434      3.779384      0.171136
  H       2.381666      3.949989     -1.574771
  H       1.036119      4.305476     -0.479113
  C       2.689884      1.346784     -1.248639
  H       2.458087      0.290176     -1.412814
  H       3.081059      1.757265     -2.194358
  H       3.499495      1.414624     -0.508806
  C       2.529557     -0.111451      2.075430
  H       1.796640     -0.926912      2.146237
  H       3.096291     -0.232848      1.142371
  H       3.239767     -0.212435      2.912155
  C       2.972593      2.328899      2.193672
  H       2.605752      3.357583      2.302664
  H       3.594537      2.119905      3.079809
  H       3.632786      2.286119      1.317995
  C       1.062040      1.357524      3.478264
  H       0.683712      2.370823      3.666863
  H       0.214784      0.658872      3.500087
  H       1.737815      1.095320      4.308887
  Pd     -0.449368     -0.792871      0.457065
  Br     -1.446192     -1.385456      2.849864
  N      -1.665013     -2.752441     -0.222918
  C       0.594768     -1.287112     -1.124618
  C       0.090531     -1.209527     -2.424683
  H      -0.844865     -0.679671     -2.621835
  C       0.769595     -1.820408     -3.485502
  H       0.349257     -1.774053     -4.499139
  C       1.951453     -2.532136     -3.256394
  H       2.468117     -3.036152     -4.082612
  C       2.451938     -2.628654     -1.953350
  H       3.363985     -3.204288     -1.753901
  C       1.769759     -2.017717     -0.892810
  H       2.177076     -2.106104      0.113254
  C      -1.013642     -3.947765     -0.641245
  C      -1.032331     -4.377346     -1.981491
  H      -1.622971     -3.834948     -2.724129
  C      -0.292759     -5.500149     -2.365693
  H      -0.319934     -5.829647     -3.409867
  C       0.460547     -6.209806     -1.429427
  H       1.044800     -7.079544     -1.735927
  C       0.455025     -5.800415     -0.090557
  H       1.016750     -6.362051      0.659670
  C      -0.276065     -4.680838      0.305120
  H      -0.277835     -4.354972      1.348280
  H      -2.305871     -2.398917     -0.940262
  H      -2.164085     -2.873587      0.661039
  H       0.929182      3.995405      1.817292
  H      -0.530852      5.786948      2.580222
  H      -3.025737      5.509112      2.447150
  H      -3.959253      3.420895      1.498948
  H      -3.787621      0.957778      2.437709
  H      -2.016571      1.452484     -1.455421
  H      -5.092310     -1.504190     -0.851557
75
Coordinates from ORCA-job PR-102-n_MEP E -4338.938573644664
  C      -2.042933      2.514681      1.109665
  C      -0.638380      2.679619      1.174518
  C      -0.138999      3.897499      1.685770
  C      -0.974348      4.924898      2.120073
  C      -2.358250      4.754588      2.064078
  C      -2.872152      3.561228      1.566017
  C      -2.774258      1.322850      0.595795
  C      -2.710485      0.927478     -0.751070
  C      -3.546511     -0.086019     -1.229819
  C      -4.434608     -0.732451     -0.367626
  C      -4.491897     -0.355086      0.977843
  C      -3.672327      0.668140      1.451457
  H      -3.498227     -0.367227     -2.284631
  H      -5.166347     -0.866373      1.666602
  P       0.605896      1.379712      0.692762
  C       1.467143      2.175843     -0.847182
  C       1.853898      1.316592      2.174213
  C       0.438462      2.165888     -1.988096
  H       0.919469      2.559527     -2.898617
  H       0.073499      1.161379     -2.215811
  H      -0.418508      2.818499     -1.762425
  C       1.903090      3.644208     -0.672284
  H       2.624831      3.802519      0.135784
  H       2.396842      3.944184     -1.612199
  H       1.050153      4.319663     -0.526645
  C       2.702794      1.347898     -1.242149
  H       2.471887      0.288810     -1.387900
  H       3.095072      1.741020     -2.194823
  H       3.511568      1.428950     -0.502380
  C       2.541292     -0.057625      2.107992
  H       1.814853     -0.877707      2.186155
  H       3.115487     -0.186093      1.180823
  H       3.246438     -0.139817      2.950642
  C       2.961575      2.387054      2.203444
  H       2.586846      3.414557      2.295298
  H       3.577628      2.195398      3.097905
  H       3.630995      2.337572      1.334745
  C       1.042368      1.407875      3.477554
  H       0.651638      2.418794      3.653614
  H       0.201083      0.701058      3.491813
  H       1.708430      1.157489      4.319571
  Pd     -0.447521     -0.767598      0.497501
  Br     -1.414882     -1.514132      2.854436
  N      -1.726716     -2.827893     -0.311575
  C       0.627272     -1.282986     -1.048256
  C       0.130203     -1.218375     -2.350874
  H      -0.804966     -0.691095     -2.556716
  C       0.811121     -1.854507     -3.392701
  H       0.392451     -1.829457     -4.406838
  C       1.989002     -2.566098     -3.139931
  H       2.507602     -3.085854     -3.952827
  C       2.481663     -2.643618     -1.833536
  H       3.388393     -3.221308     -1.616297
  C       1.797985     -2.009424     -0.787907
  H       2.194930     -2.081007      0.223963
  C      -1.069966     -4.002620     -0.748927
  C      -1.089792     -4.414947     -2.096614
  H      -1.688649     -3.873038     -2.832425
  C      -0.341734     -5.525757     -2.498934
  H      -0.362318     -5.837795     -3.547450
  C       0.421740     -6.244297     -1.577234
  H       1.021058     -7.097489     -1.898818
  C       0.413643     -5.854831     -0.231941
  H       0.985818     -6.419250      0.506949
  C      -0.326575     -4.749258      0.182295
  H      -0.334385     -4.446551      1.232565
  H      -2.387411     -2.466499     -1.001927
  H      -2.184444     -2.934652      0.595526
  H       0.932120      4.058816      1.760808
  H      -0.538431      5.849685      2.505047
  H      -3.031589      5.544590      2.405869
  H      -3.953515      3.427381      1.510495
  H      -3.716980      0.960727      2.502966
  H      -2.047487      1.450596     -1.436140
  H      -5.082646     -1.528530     -0.741030
75
Coordinates from ORCA-job PR-102-n_MEP E -4338.934311216790
  C      -2.036850      2.523640      1.111586
  C      -0.632692      2.696844      1.168630
  C      -0.136899      3.920710      1.670543
  C      -0.976111      4.945377      2.102034
  C      -2.359595      4.768071      2.052667
  C      -2.868728      3.568305      1.564413
  C      -2.764136      1.324012      0.608503
  C      -2.712525      0.926364     -0.737340
  C      -3.549334     -0.089859     -1.207217
  C      -4.428582     -0.737438     -0.334447
  C      -4.473235     -0.358381      1.009546
  C      -3.652412      0.667272      1.475595
  H      -3.509899     -0.374030     -2.260772
  H      -5.140483     -0.870529      1.705593
  P       0.615814      1.400016      0.690886
  C       1.475282      2.183367     -0.852962
  C       1.857260      1.337575      2.177247
  C       0.443922      2.164212     -1.991304
  H       0.921351      2.552120     -2.905960
  H       0.080420      1.157471     -2.210629
  H      -0.414183      2.815888     -1.767953
  C       1.911602      3.652419     -0.687105
  H       2.633252      3.814680      0.120452
  H       2.406003      3.947391     -1.628221
  H       1.058442      4.328698     -0.546219
  C       2.709480      1.350631     -1.241739
  H       2.476006      0.291122     -1.379322
  H       3.102687      1.735423     -2.197222
  H       3.518023      1.435240     -0.502205
  C       2.547413     -0.035361      2.118770
  H       1.821992     -0.855925      2.200483
  H       3.123611     -0.167722      1.193639
  H       3.250666     -0.111394      2.963361
  C       2.961907      2.411121      2.207356
  H       2.584109      3.438077      2.293399
  H       3.575464      2.224550      3.104638
  H       3.634392      2.358651      1.340964
  C       1.037514      1.428145      3.475824
  H       0.641970      2.437711      3.648726
  H       0.198682      0.717862      3.486055
  H       1.699652      1.181083      4.321859
  Pd     -0.437247     -0.734395      0.524936
  Br     -1.396592     -1.595535      2.842140
  N      -1.774233     -2.878703     -0.363568
  C       0.642884     -1.273709     -1.006466
  C       0.140600     -1.216065     -2.307909
  H      -0.793725     -0.688061     -2.515562
  C       0.816420     -1.865535     -3.343892
  H       0.395027     -1.846152     -4.357466
  C       1.993984     -2.575538     -3.087252
  H       2.510867     -3.100722     -3.897827
  C       2.487122     -2.650209     -1.781432
  H       3.392295     -3.228135     -1.561018
  C       1.808859     -2.004038     -0.738578
  H       2.206555     -2.070376      0.272669
  C      -1.105125     -4.035564     -0.799609
  C      -1.115696     -4.443140     -2.145808
  H      -1.715594     -3.905575     -2.884500
  C      -0.352854     -5.545994     -2.553400
  H      -0.364251     -5.849989     -3.602530
  C       0.413965     -6.258219     -1.630074
  H       1.025831     -7.105863     -1.955411
  C       0.400744     -5.877681     -0.287768
  H       0.977712     -6.433919      0.452088
  C      -0.356001     -4.778187      0.135419
  H      -0.368300     -4.483964      1.182710
  H      -2.453433     -2.526212     -1.040082
  H      -2.192172     -2.956288      0.564423
  H       0.933754      4.086941      1.740853
  H      -0.543601      5.874294      2.480765
  H      -3.035238      5.556160      2.392572
  H      -3.949843      3.428801      1.514947
  H      -3.689374      0.962708      2.525896
  H      -2.057357      1.450946     -1.430198
  H      -5.077235     -1.535493     -0.701218
75
Coordinates from ORCA-job PR-102-n_MEP E -4338.931158291634
  C      -2.030460      2.530272      1.112419
  C      -0.627701      2.712191      1.163988
  C      -0.134710      3.938903      1.658500
  C      -0.978469      4.962841      2.089045
  C      -2.360505      4.777423      2.044111
  C      -2.866294      3.574376      1.563420
  C      -2.756089      1.324988      0.620258
  C      -2.712881      0.925939     -0.729081
  C      -3.551507     -0.092432     -1.188687
  C      -4.422006     -0.741067     -0.311964
  C      -4.458217     -0.360573      1.035482
  C      -3.634675      0.666556      1.491656
  H      -3.518207     -0.378496     -2.243467
  H      -5.119499     -0.873266      1.734220
  P       0.626478      1.420504      0.688260
  C       1.482763      2.190825     -0.858533
  C       1.861350      1.355182      2.179327
  C       0.448726      2.163479     -1.994121
  H       0.922707      2.546835     -2.912222
  H       0.086760      1.154848     -2.206396
  H      -0.410494      2.814010     -1.772481
  C       1.919338      3.659948     -0.699689
  H       2.640799      3.824837      0.107687
  H       2.414160      3.951432     -1.641536
  H       1.065846      4.336574     -0.562075
  C       2.714884      1.352995     -1.241900
  H       2.478250      0.293334     -1.372319
  H       3.109136      1.730421     -2.199654
  H       3.523454      1.440078     -0.502763
  C       2.552736     -0.017308      2.126534
  H       1.827731     -0.838024      2.211091
  H       3.130427     -0.153104      1.202998
  H       3.254531     -0.089127      2.972585
  C       2.963697      2.430542      2.210560
  H       2.583315      3.456973      2.292401
  H       3.575046      2.247334      3.109928
  H       3.638375      2.375600      1.345780
  C       1.034755      1.444534      3.474041
  H       0.635141      2.452905      3.644831
  H       0.197803      0.731430      3.480899
  H       1.693856      1.199543      4.323052
  Pd     -0.423750     -0.697205      0.556874
  Br     -1.381537     -1.673979      2.819508
  N      -1.821984     -2.924662     -0.415238
  C       0.653143     -1.267539     -0.967143
  C       0.145601     -1.215487     -2.267765
  H      -0.787595     -0.685767     -2.477459
  C       0.816902     -1.873048     -3.300374
  H       0.393352     -1.856222     -4.313194
  C       1.995435     -2.581095     -3.044199
  H       2.510125     -3.108961     -3.853992
  C       2.488971     -2.654114     -1.739461
  H       3.394241     -3.231873     -1.518221
  C       1.816365     -2.001384     -0.697552
  H       2.217115     -2.064199      0.312992
  C      -1.136935     -4.065175     -0.834253
  C      -1.134470     -4.475751     -2.191790
  H      -1.737531     -3.935287     -2.927562
  C      -0.363239     -5.558879     -2.593137
  H      -0.362025     -5.862319     -3.646747
  C       0.414189     -6.275800     -1.677509
  H       1.031230     -7.109453     -1.996113
  C       0.387198     -5.886645     -0.321907
  H       0.973422     -6.442688      0.410070
  C      -0.378469     -4.808482      0.089602
  H      -0.397756     -4.511826      1.146801
  H      -2.513887     -2.582165     -1.073512
  H      -2.195474     -2.967172      0.538078
  H       0.935082      4.110122      1.725823
  H      -0.548616      5.893400      2.463074
  H      -3.038837      5.564620      2.382872
  H      -3.946219      3.429486      1.518502
  H      -3.667239      0.964072      2.543710
  H      -2.064872      1.451503     -1.425833
  H      -5.072289     -1.540276     -0.671132
75
Coordinates from ORCA-job PR-102-n_MEP E -4338.929199761799
  C      -2.025928      2.536718      1.113598
  C      -0.622603      2.724856      1.159726
  C      -0.133545      3.956064      1.649595
  C      -0.979785      4.975748      2.078421
  C      -2.361885      4.785724      2.037859
  C      -2.862766      3.578222      1.562196
  C      -2.747269      1.325982      0.625939
  C      -2.713077      0.926097     -0.719786
  C      -3.551512     -0.094268     -1.176628
  C      -4.416958     -0.743635     -0.290577
  C      -4.444830     -0.362893      1.052153
  C      -3.620612      0.665729      1.507360
  H      -3.524504     -0.381329     -2.229093
  H      -5.102568     -0.875479      1.756994
  P       0.636665      1.439621      0.685190
  C       1.489574      2.197881     -0.863752
  C       1.865234      1.370150      2.180349
  C       0.452893      2.163180     -1.996608
  H       0.923612      2.542673     -2.917740
  H       0.092381      1.152753     -2.202692
  H      -0.407330      2.812572     -1.776331
  C       1.926244      3.666693     -0.710534
  H       2.647430      3.833388      0.096660
  H       2.421292      3.955698     -1.652611
  H       1.072439      4.343327     -0.575359
  C       2.719250      1.354899     -1.242300
  H       2.479290      0.295149     -1.366384
  H       3.114557      1.725731     -2.201841
  H       3.527802      1.443814     -0.503641
  C       2.557145     -0.002399      2.132192
  H       1.832205     -0.823090      2.219145
  H       3.135915     -0.141168      1.209913
  H       3.257831     -0.071014      2.979384
  C       2.965977      2.446554      2.213204
  H       2.583350      3.472437      2.291975
  H       3.575469      2.265685      3.114228
  H       3.642388      2.389512      1.349765
  C       1.032999      1.458090      3.472228
  H       0.630129      2.465544      3.641534
  H       0.197425      0.742728      3.476156
  H       1.689695      1.214368      4.323714
  Pd     -0.411064     -0.663846      0.588776
  Br     -1.369219     -1.750685      2.789835
  N      -1.865542     -2.963565     -0.453450
  C       0.660202     -1.265166     -0.932076
  C       0.146230     -1.216255     -2.231011
  H      -0.785344     -0.685081     -2.442924
  C       0.814509     -1.878994     -3.263155
  H       0.389990     -1.861733     -4.273594
  C       1.995175     -2.584271     -3.008414
  H       2.507468     -3.112328     -3.817640
  C       2.489914     -2.657420     -1.704556
  H       3.394889     -3.232954     -1.483933
  C       1.821245     -2.000730     -0.662191
  H       2.225623     -2.061379      0.347199
  C      -1.164235     -4.096090     -0.873926
  C      -1.154257     -4.497291     -2.219543
  H      -1.755390     -3.961966     -2.964013
  C      -0.366242     -5.577983     -2.629991
  H      -0.358528     -5.872667     -3.680106
  C       0.412323     -6.282345     -1.705222
  H       1.039363     -7.115203     -2.028488
  C       0.382629     -5.903714     -0.361054
  H       0.970866     -6.446978      0.377736
  C      -0.402774     -4.824083      0.062990
  H      -0.421656     -4.535524      1.113133
  H      -2.567009     -2.629161     -1.104459
  H      -2.194072     -2.968176      0.509846
  H       0.936260      4.129764      1.714092
  H      -0.553170      5.909579      2.450007
  H      -3.042052      5.570917      2.375459
  H      -3.943501      3.429796      1.521413
  H      -3.648707      0.964633      2.556605
  H      -2.070103      1.452536     -1.423132
  H      -5.067838     -1.543949     -0.647815
75
Coordinates from ORCA-job PR-102-n_MEP E -4338.927724801661
  C      -2.020411      2.542163      1.113952
  C      -0.618194      2.737290      1.156216
  C      -0.132301      3.970510      1.641411
  C      -0.981753      4.988493      2.069796
  C      -2.362737      4.792849      2.032285
  C      -2.861015      3.582185      1.561381
  C      -2.740064      1.326854      0.633837
  C      -2.712235      0.925941     -0.713930
  C      -3.551361     -0.096095     -1.163932
  C      -4.411259     -0.746138     -0.274821
  C      -4.432885     -0.364272      1.069934
  C      -3.606876      0.665293      1.518409
  H      -3.529726     -0.383818     -2.217007
  H      -5.086989     -0.877024      1.776572
  P       0.645842      1.457221      0.682029
  C       1.495714      2.204397     -0.868736
  C       1.868796      1.383583      2.181124
  C       0.456572      2.162725     -1.998879
  H       0.924386      2.538588     -2.922663
  H       0.097403      1.150678     -2.199159
  H      -0.404554      2.811149     -1.779864
  C       1.932489      3.672783     -0.720349
  H       2.653474      3.840917      0.086791
  H       2.427734      3.959375     -1.662658
  H       1.078343      4.349403     -0.587235
  C       2.722855      1.356207     -1.242577
  H       2.479770      0.296443     -1.360806
  H       3.119081      1.720992     -2.203704
  H       3.531471      1.446814     -0.504353
  C       2.560831      0.010861      2.136792
  H       1.835989     -0.809785      2.225889
  H       3.140396     -0.130697      1.215591
  H       3.260613     -0.055066      2.984885
  C       2.968101      2.460786      2.215508
  H       2.583596      3.486235      2.291771
  H       3.575713      2.281661      3.117996
  H       3.646133      2.401920      1.353273
  C       1.031507      1.470156      3.470443
  H       0.625799      2.476728      3.638480
  H       0.197067      0.752895      3.471855
  H       1.686021      1.227500      4.324055
  Pd     -0.402277     -0.632932      0.618365
  Br     -1.355718     -1.828000      2.754156
  N      -1.908344     -2.999259     -0.492024
  C       0.663444     -1.266261     -0.898757
  C       0.145093     -1.219707     -2.197349
  H      -0.785336     -0.686244     -2.410257
  C       0.811821     -1.883993     -3.228154
  H       0.386337     -1.865086     -4.238601
  C       1.993798     -2.586140     -2.976023
  H       2.505263     -3.113867     -3.786027
  C       2.489461     -2.659805     -1.673730
  H       3.396077     -3.233352     -1.453924
  C       1.824623     -2.002699     -0.630156
  H       2.232109     -2.060988      0.378137
  C      -1.187986     -4.122332     -0.899513
  C      -1.168553     -4.522684     -2.252112
  H      -1.770798     -3.984925     -2.995054
  C      -0.371282     -5.588842     -2.656315
  H      -0.355570     -5.882777     -3.711082
  C       0.414414     -6.292791     -1.738335
  H       1.044936     -7.118176     -2.054944
  C       0.375151     -5.909068     -0.384436
  H       0.968846     -6.450614      0.349549
  C      -0.420009     -4.844128      0.030163
  H      -0.442190     -4.553929      1.087346
  H      -2.609304     -2.665815     -1.132902
  H      -2.191185     -2.964007      0.485516
  H       0.937224      4.147544      1.703840
  H      -0.557727      5.923677      2.438632
  H      -3.045157      5.576340      2.369033
  H      -3.940467      3.430050      1.523756
  H      -3.631894      0.965557      2.568877
  H      -2.074814      1.453369     -1.420385
  H      -5.063321     -1.546815     -0.626894
75
Coordinates from ORCA-job PR-102-n_MEP E -4338.926820585986
  C      -2.015557      2.547589      1.114473
  C      -0.613835      2.748770      1.152864
  C      -0.131079      3.984463      1.634124
  C      -0.983708      5.000209      2.061673
  C      -2.363927      4.799319      2.027070
  C      -2.858765      3.585895      1.560289
  C      -2.732666      1.328018      0.640179
  C      -2.711346      0.925730     -0.707539
  C      -3.550536     -0.097951     -1.152328
  C      -4.405386     -0.748752     -0.258803
  C      -4.421176     -0.365838      1.085877
  C      -3.593868      0.665098      1.529851
  H      -3.534327     -0.386254     -2.205494
  H      -5.072346     -0.878362      1.795116
  P       0.653895      1.473784      0.678783
  C       1.501192      2.210286     -0.873175
  C       1.871930      1.395999      2.181684
  C       0.459902      2.161976     -2.000939
  H       0.925012      2.534246     -2.927233
  H       0.101947      1.148397     -2.195745
  H      -0.402007      2.809585     -1.783330
  C       1.938234      3.678227     -0.729540
  H       2.659032      3.847690      0.077510
  H       2.433584      3.962338     -1.672112
  H       1.083847      4.354909     -0.598351
  C       2.725934      1.357011     -1.242619
  H       2.479875      0.297153     -1.355325
  H       3.122943      1.716020     -2.205312
  H       3.534634      1.449345     -0.504848
  C       2.563944      0.023052      2.140750
  H       1.839059     -0.797400      2.231865
  H       3.144103     -0.120915      1.220466
  H       3.262985     -0.040506      2.989567
  C       2.969961      2.473939      2.217554
  H       2.583740      3.499048      2.291588
  H       3.575714      2.296184      3.121442
  H       3.649565      2.413417      1.356445
  C       1.030079      1.481246      3.468793
  H       0.621725      2.487053      3.635537
  H       0.196710      0.762060      3.468308
  H       1.682789      1.239879      4.324364
  Pd     -0.397016     -0.604548      0.645609
  Br     -1.342125     -1.903891      2.713585
  N      -1.949057     -3.037258     -0.524380
  C       0.664678     -1.270257     -0.867027
  C       0.142408     -1.224611     -2.165100
  H      -0.786893     -0.689316     -2.378797
  C       0.808675     -1.888832     -3.196353
  H       0.383034     -1.867386     -4.205902
  C       1.992833     -2.587648     -2.946251
  H       2.503293     -3.114131     -3.756615
  C       2.489143     -2.662194     -1.644904
  H       3.397243     -3.233095     -1.426255
  C       1.826542     -2.005902     -0.600159
  H       2.236969     -2.062375      0.407411
  C      -1.210572     -4.144712     -0.925109
  C      -1.181652     -4.543701     -2.280792
  H      -1.784843     -4.005141     -3.022941
  C      -0.374624     -5.599497     -2.681631
  H      -0.353943     -5.891681     -3.739055
  C       0.415336     -6.299508     -1.765069
  H       1.050529     -7.121537     -2.079809
  C       0.369473     -5.915396     -0.409959
  H       0.966836     -6.454219      0.324828
  C      -0.434872     -4.860876      0.003879
  H      -0.460471     -4.570413      1.062483
  H      -2.642472     -2.691679     -1.162839
  H      -2.185903     -2.956570      0.461665
  H       0.937910      4.164367      1.694311
  H      -0.562168      5.937170      2.428262
  H      -3.048296      5.581544      2.363088
  H      -3.938040      3.430286      1.525733
  H      -3.616004      0.966660      2.579919
  H      -2.078886      1.454080     -1.418031
  H      -5.058871     -1.549691     -0.607278
75
Coordinates from ORCA-job PR-102-n_MEP E -4338.926582295710
  C      -2.010404      2.553737      1.115067
  C      -0.609377      2.761485      1.149425
  C      -0.130140      3.999938      1.626108
  C      -0.985972      5.013029      2.052867
  C      -2.365410      4.806706      2.021186
  C      -2.856664      3.589940      1.559145
  C      -2.724519      1.329191      0.647318
  C      -2.710286      0.925376     -0.700494
  C      -3.549565     -0.100558     -1.139387
  C      -4.398547     -0.751994     -0.240677
  C      -4.407835     -0.367862      1.103386
  C      -3.579647      0.664656      1.542419
  H      -3.539274     -0.389144     -2.192514
  H      -5.055994     -0.880202      1.815916
  P       0.661557      1.490207      0.675680
  C       1.506788      2.216012     -0.877832
  C       1.874893      1.409468      2.182343
  C       0.463255      2.160527     -2.003066
  H       0.925612      2.528733     -2.932094
  H       0.106500      1.145249     -2.191725
  H      -0.399490      2.807415     -1.787045
  C       1.944248      3.683624     -0.739524
  H       2.664869      3.854674      0.067451
  H       2.439770      3.964777     -1.682542
  H       1.089604      4.360482     -0.610452
  C       2.728872      1.357307     -1.242361
  H       2.479755      0.297356     -1.348914
  H       3.126693      1.709883     -2.206784
  H       3.537634      1.451611     -0.505088
  C       2.566770      0.036170      2.145005
  H       1.841783     -0.784127      2.238220
  H       3.147584     -0.110519      1.225630
  H       3.265160     -0.025013      2.994509
  C       2.971810      2.488075      2.219685
  H       2.583813      3.512789      2.291301
  H       3.575517      2.311738      3.125125
  H       3.653088      2.425784      1.359770
  C       1.028521      1.493702      3.467154
  H       0.617556      2.498675      3.632406
  H       0.195923      0.773011      3.464974
  H       1.679120      1.253519      4.324780
  Pd     -0.394014     -0.575793      0.673052
  Br     -1.328316     -1.980804      2.665454
  N      -1.992403     -3.087032     -0.551984
  C       0.663834     -1.276432     -0.831944
  C       0.138738     -1.231524     -2.129713
  H      -0.789514     -0.695161     -2.344285
  C       0.805218     -1.894365     -3.161915
  H       0.379790     -1.870018     -4.171614
  C       1.991634     -2.589183     -2.914010
  H       2.502417     -3.114053     -3.725574
  C       2.488813     -2.664650     -1.613564
  H       3.399217     -3.232640     -1.396216
  C       1.827490     -2.009809     -0.567131
  H       2.240659     -2.065340      0.439078
  C      -1.236927     -4.165970     -0.955206
  C      -1.194986     -4.564550     -2.309368
  H      -1.800546     -4.025672     -3.052153
  C      -0.379094     -5.610294     -2.712073
  H      -0.353038     -5.899547     -3.768823
  C       0.415690     -6.306070     -1.791044
  H       1.056728     -7.124573     -2.108407
  C       0.363649     -5.924176     -0.440855
  H       0.964756     -6.459087      0.297616
  C      -0.449807     -4.878579     -0.020848
  H      -0.479893     -4.590144      1.034600
  H      -2.668102     -2.706688     -1.199431
  H      -2.174642     -2.944795      0.433760
  H       0.938606      4.182745      1.683856
  H      -0.567195      5.951870      2.416646
  H      -3.051631      5.587139      2.356277
  H      -3.935250      3.430585      1.527778
  H      -3.598594      0.968007      2.592243
  H      -2.083316      1.454562     -1.415180
  H      -5.053543     -1.553385     -0.585393
75
Coordinates from ORCA-job PR-102-n_MEP E -4338.926587382141
  C      -2.005495      2.559619      1.115466
  C      -0.605136      2.774009      1.145697
  C      -0.129391      4.014738      1.618717
  C      -0.988265      5.025354      2.044684
  C      -2.366932      4.813655      2.015730
  C      -2.854794      3.593722      1.558086
  C      -2.716521      1.330059      0.654004
  C      -2.709002      0.924946     -0.693488
  C      -3.547818     -0.103849     -1.127276
  C      -4.391603     -0.756003     -0.223595
  C      -4.394585     -0.370884      1.119753
  C      -3.566094      0.663953      1.554213
  H      -3.544019     -0.391668     -2.180577
  H      -5.040131     -0.882623      1.835161
  P       0.669209      1.507785      0.672623
  C       1.511999      2.221448     -0.882756
  C       1.877796      1.422451      2.182701
  C       0.466041      2.158672     -2.005314
  H       0.925770      2.522816     -2.937046
  H       0.110398      1.141609     -2.187624
  H      -0.397430      2.805014     -1.790685
  C       1.949946      3.688654     -0.749457
  H       2.670176      3.860793      0.057707
  H       2.445607      3.967117     -1.692816
  H       1.094930      4.365406     -0.622090
  C       2.731279      1.356886     -1.242151
  H       2.478996      0.296798     -1.342578
  H       3.129956      1.703099     -2.208286
  H       3.540040      1.453045     -0.505208
  C       2.569154      0.048470      2.148767
  H       1.843933     -0.771558      2.244271
  H       3.150096     -0.101236      1.230057
  H       3.267127     -0.010671      2.998810
  C       2.973911      2.501273      2.221463
  H       2.584200      3.525600      2.290725
  H       3.575788      2.326164      3.128322
  H       3.656500      2.437179      1.362575
  C       1.027595      1.506226      3.465674
  H       0.614593      2.510605      3.629638
  H       0.195461      0.784433      3.462994
  H       1.676506      1.267098      4.325018
  Pd     -0.388932     -0.545647      0.708790
  Br     -1.315172     -2.048727      2.605417
  N      -2.099604     -3.196821     -0.559233
  C       0.658095     -1.286001     -0.795571
  C       0.130233     -1.241937     -2.093306
  H      -0.796239     -0.703054     -2.310025
  C       0.799030     -1.901117     -3.127573
  H       0.375507     -1.871724     -4.137239
  C       1.988354     -2.590240     -2.882927
  H       2.500662     -3.110875     -3.695771
  C       2.486310     -2.666543     -1.583189
  H       3.399512     -3.229924     -1.367740
  C       1.826082     -2.015141     -0.535022
  H       2.242968     -2.069066      0.469768
  C      -1.277154     -4.201027     -0.982270
  C      -1.208686     -4.587878     -2.335177
  H      -1.817550     -4.047308     -3.079180
  C      -0.380790     -5.618631     -2.742139
  H      -0.345411     -5.901153     -3.798494
  C       0.418845     -6.312729     -1.816128
  H       1.064816     -7.126871     -2.136804
  C       0.360050     -5.933049     -0.470855
  H       0.968959     -6.460381      0.270194
  C      -0.467197     -4.900254     -0.042775
  H      -0.500712     -4.614255      1.009015
  H      -2.636056     -2.664092     -1.248517
  H      -2.127638     -2.900992      0.399122
  H       0.938965      4.200414      1.674058
  H      -0.572236      5.966211      2.405858
  H      -3.055171      5.592532      2.349817
  H      -3.932972      3.430769      1.529765
  H      -3.582517      0.968979      2.603465
  H      -2.087250      1.454847     -1.412424
  H      -5.046891     -1.558512     -0.564816
75
Coordinates from ORCA-job PR-102-n_MEP E -4338.928178284133
  C      -2.000348      2.566233      1.116645
  C      -0.601051      2.787138      1.142056
  C      -0.128988      4.031078      1.608902
  C      -0.990936      5.039669      2.033474
  C      -2.368804      4.822373      2.008342
  C      -2.853368      3.598358      1.556956
  C      -2.708074      1.331051      0.662966
  C      -2.708696      0.924807     -0.684712
  C      -3.547140     -0.107317     -1.111779
  C      -4.383394     -0.760761     -0.202245
  C      -4.379013     -0.374704      1.140557
  C      -3.550185      0.663176      1.569054
  H      -3.550268     -0.395275     -2.165053
  H      -5.020264     -0.886398      1.859873
  P       0.674077      1.521875      0.671389
  C       1.516072      2.225048     -0.886391
  C       1.879617      1.436876      2.183783
  C       0.468480      2.154922     -2.007096
  H       0.926052      2.514219     -2.941698
  H       0.113537      1.136200     -2.182593
  H      -0.395525      2.801218     -1.794584
  C       1.955087      3.692215     -0.760157
  H       2.675062      3.866710      0.046820
  H       2.451054      3.966713     -1.704399
  H       1.100162      4.369611     -0.635434
  C       2.733398      1.355531     -1.240618
  H       2.478842      0.295057     -1.334222
  H       3.132630      1.694872     -2.208950
  H       3.542310      1.454717     -0.504160
  C       2.571544      0.062899      2.154133
  H       1.846340     -0.756934      2.252177
  H       3.152785     -0.089913      1.236169
  H       3.269065      0.006650      3.004789
  C       2.974430      2.516830      2.223417
  H       2.582656      3.540733      2.289531
  H       3.574403      2.343965      3.132087
  H       3.658802      2.451050      1.365811
  C       1.025615      1.520418      3.464627
  H       0.609431      2.523901      3.626236
  H       0.195121      0.796235      3.460976
  H       1.672644      1.283655      4.326117
  Pd     -0.388515     -0.523659      0.736539
  Br     -1.298767     -2.108115      2.552527
  N      -2.194606     -3.273107     -0.581874
  C       0.654385     -1.295960     -0.759994
  C       0.126083     -1.253709     -2.058551
  H      -0.799672     -0.714471     -2.276998
  C       0.797958     -1.910286     -3.092918
  H       0.376361     -1.878381     -4.103417
  C       1.989160     -2.594852     -2.848405
  H       2.503990     -3.112736     -3.661683
  C       2.486507     -2.669885     -1.548669
  H       3.402862     -3.229402     -1.333229
  C       1.825770     -2.020938     -0.500680
  H       2.243813     -2.072746      0.503924
  C      -1.311087     -4.234246     -1.003528
  C      -1.228516     -4.603704     -2.366505
  H      -1.837529     -4.063738     -3.104790
  C      -0.385449     -5.625206     -2.773412
  H      -0.344157     -5.897004     -3.833074
  C       0.414461     -6.315432     -1.852018
  H       1.066660     -7.124221     -2.172557
  C       0.352127     -5.941269     -0.501802
  H       0.968846     -6.462965      0.234902
  C      -0.488487     -4.921075     -0.075371
  H      -0.523239     -4.637533      0.981706
  H      -2.583513     -2.645121     -1.280290
  H      -2.095981     -2.889084      0.351639
  H       0.938955      4.220433      1.661057
  H      -0.578010      5.983182      2.390355
  H      -3.059118      5.599604      2.340938
  H      -3.930621      3.431271      1.532304
  H      -3.562446      0.969835      2.618041
  H      -2.093028      1.455299     -1.408231
  H      -5.038359     -1.565484     -0.538734
75
Coordinates from ORCA-job PR-102-n_MEP E -4338.929435722156
  C      -1.994677      2.575109      1.119098
  C      -0.596301      2.803808      1.137360
  C      -0.128884      4.052929      1.594065
  C      -0.994584      5.059292      2.015376
  C      -2.371433      4.834568      1.996486
  C      -2.851294      3.605523      1.555199
  C      -2.696603      1.332439      0.676429
  C      -2.709565      0.924058     -0.670877
  C      -3.546905     -0.111780     -1.088544
  C      -4.372816     -0.767958     -0.169905
  C      -4.356588     -0.379792      1.172117
  C      -3.527803      0.661563      1.591592
  H      -3.559997     -0.401165     -2.141218
  H      -4.990950     -0.892268      1.897400
  P       0.677720      1.536931      0.672217
  C       1.519955      2.226985     -0.889710
  C       1.880408      1.456293      2.186324
  C       0.470954      2.147671     -2.008578
  H       0.926570      2.500186     -2.946677
  H       0.116489      1.127121     -2.175190
  H      -0.393388      2.794635     -1.799460
  C       1.960537      3.694382     -0.773966
  H       2.680526      3.873351      0.032272
  H       2.457084      3.962513     -1.719741
  H       1.106213      4.373540     -0.653888
  C       2.735650      1.352362     -1.237040
  H       2.479246      0.291380     -1.321365
  H       3.135207      1.682751     -2.208316
  H       3.544753      1.456627     -0.501430
  C       2.574088      0.083056      2.163158
  H       1.849338     -0.736711      2.264588
  H       3.155958     -0.073829      1.246355
  H       3.271013      0.031392      3.014658
  C       2.972835      2.538481      2.226040
  H       2.578357      3.561820      2.287208
  H       3.570677      2.370040      3.137067
  H       3.659795      2.470687      1.370403
  C       1.021804      1.540649      3.464269
  H       0.601388      2.543042      3.621781
  H       0.193436      0.813611      3.459398
  H       1.666194      1.307868      4.328836
  Pd     -0.393902     -0.502951      0.761929
  Br     -1.278364     -2.176090      2.496538
  N      -2.239393     -3.309121     -0.617279
  C       0.653410     -1.307543     -0.717488
  C       0.127044     -1.269134     -2.017073
  H      -0.798981     -0.731938     -2.238703
  C       0.802740     -1.924917     -3.050282
  H       0.384145     -1.893624     -4.061167
  C       1.996169     -2.605245     -2.802531
  H       2.513883     -3.121977     -3.613972
  C       2.491263     -2.676575     -1.501125
  H       3.409405     -3.231518     -1.283793
  C       1.826362     -2.027828     -0.455295
  H       2.243635     -2.076952      0.549835
  C      -1.338303     -4.261874     -1.039966
  C      -1.252209     -4.618775     -2.408778
  H      -1.862617     -4.077709     -3.141206
  C      -0.398132     -5.631745     -2.818477
  H      -0.352097     -5.892474     -3.882738
  C       0.403840     -6.319635     -1.904103
  H       1.064592     -7.121784     -2.227649
  C       0.338569     -5.955899     -0.548722
  H       0.962036     -6.474188      0.182856
  C      -0.512800     -4.945396     -0.119720
  H      -0.547819     -4.667656      0.941016
  H      -2.563625     -2.647687     -1.316121
  H      -2.090661     -2.902724      0.302520
  H       0.938588      4.247510      1.641093
  H      -0.585644      6.007414      2.365263
  H      -3.064628      5.610728      2.326546
  H      -3.928161      3.432293      1.535870
  H      -3.532869      0.970870      2.639909
  H      -2.102383      1.455911     -1.401331
  H      -5.027498     -1.574930     -0.499650
75
Coordinates from ORCA-job PR-102-n_MEP E -4338.930577042855
  C      -1.988782      2.584568      1.122209
  C      -0.592057      2.820958      1.132383
  C      -0.128967      4.075826      1.576505
  C      -0.998589      5.080923      1.993656
  C      -2.374368      4.848608      1.982324
  C      -2.850021      3.613333      1.553015
  C      -2.684571      1.333530      0.692191
  C      -2.711024      0.922963     -0.654585
  C      -3.547488     -0.117661     -1.061264
  C      -4.361072     -0.775753     -0.132473
  C      -4.331501     -0.386026      1.208638
  C      -3.502394      0.659894      1.617718
  H      -3.571599     -0.408379     -2.113369
  H      -4.957038     -0.899136      1.941029
  P       0.679844      1.550523      0.674869
  C       1.523119      2.227064     -0.892124
  C       1.879913      1.477554      2.190169
  C       0.473037      2.138087     -2.009418
  H       0.927286      2.483085     -2.951005
  H       0.118679      1.115777     -2.166580
  H      -0.391418      2.786253     -1.804363
  C       1.965383      3.694667     -0.788416
  H       2.685421      3.879303      0.016588
  H       2.462617      3.955097     -1.735843
  H       1.112077      4.376054     -0.674173
  C       2.737618      1.347814     -1.231806
  H       2.480029      0.286221     -1.306021
  H       3.137202      1.668680     -2.206235
  H       3.546974      1.458283     -0.497289
  C       2.576418      0.105446      2.174619
  H       1.852600     -0.714757      2.279760
  H       3.159100     -0.055808      1.258998
  H       3.272794      0.059361      3.027103
  C       2.969296      2.562481      2.228880
  H       2.571755      3.584878      2.284275
  H       3.565085      2.399987      3.142280
  H       3.658976      2.492658      1.375563
  C       1.016949      1.563678      3.465179
  H       0.592183      2.565054      3.617266
  H       0.190884      0.833681      3.459642
  H       1.658758      1.335953      4.333047
  Pd     -0.400625     -0.487079      0.785312
  Br     -1.259689     -2.234392      2.444477
  N      -2.267445     -3.332204     -0.654660
  C       0.655250     -1.318757     -0.675272
  C       0.132458     -1.286374     -1.976558
  H      -0.794190     -0.751818     -2.201970
  C       0.812564     -1.943355     -3.005804
  H       0.397020     -1.915142     -4.017675
  C       2.006790     -2.619808     -2.753000
  H       2.528219     -3.137232     -3.561494
  C       2.498355     -2.684934     -1.450149
  H       3.417716     -3.236004     -1.228705
  C       1.829294     -2.035075     -0.407642
  H       2.243585     -2.080539      0.598873
  C      -1.360026     -4.282736     -1.084637
  C      -1.272340     -4.629218     -2.454564
  H      -1.886865     -4.085990     -3.183069
  C      -0.415001     -5.635247     -2.871476
  H      -0.367107     -5.888088     -3.938097
  C       0.391724     -6.326028     -1.962966
  H       1.057522     -7.120738     -2.292350
  C       0.323244     -5.972136     -0.604381
  H       0.950425     -6.492323      0.122812
  C      -0.532680     -4.968446     -0.169252
  H      -0.568742     -4.699392      0.893882
  H      -2.565312     -2.656344     -1.351055
  H      -2.095539     -2.921387      0.257625
  H       0.937513      4.276599      1.617390
  H      -0.594122      6.034095      2.334477
  H      -3.070584      5.623422      2.308960
  H      -3.925809      3.433616      1.539759
  H      -3.498818      0.971858      2.665131
  H      -2.113847      1.456160     -1.392692
  H      -5.016042     -1.585681     -0.454171
75
Coordinates from ORCA-job PR-102-n_MEP E -4338.931675006227
  C      -1.982965      2.594407      1.125607
  C      -0.587998      2.838634      1.126895
  C      -0.129669      4.100008      1.556710
  C      -1.003214      5.103705      1.968701
  C      -2.377811      4.863496      1.966003
  C      -2.848831      3.621505      1.550367
  C      -2.671897      1.334493      0.709714
  C      -2.713005      0.921264     -0.636626
  C      -3.548675     -0.124482     -1.030802
  C      -4.348147     -0.784572     -0.091148
  C      -4.303878     -0.392889      1.248955
  C      -3.474462      0.657716      1.646197
  H      -3.584767     -0.416753     -2.082284
  H      -4.918956     -0.907256      1.989358
  P       0.680989      1.562771      0.678782
  C       1.525800      2.225634     -0.893664
  C       1.878654      1.500264      2.195170
  C       0.474889      2.126510     -2.009565
  H       0.928148      2.463201     -2.954752
  H       0.120431      1.102549     -2.156738
  H      -0.389660      2.776216     -1.809231
  C       1.969983      3.693654     -0.803690
  H       2.689833      3.884523      0.000168
  H       2.468077      3.945195     -1.753220
  H       1.117587      4.377263     -0.695891
  C       2.739423      1.341954     -1.225196
  H       2.480974      0.279731     -1.288385
  H       3.138829      1.652599     -2.203087
  H       3.549030      1.459426     -0.491838
  C       2.578780      0.129936      2.188208
  H       1.856418     -0.690925      2.297718
  H       3.162340     -0.036168      1.273942
  H       3.274445      0.090352      3.041667
  C       2.964373      2.588806      2.232122
  H       2.562891      3.610028      2.280838
  H       3.558221      2.433204      3.148155
  H       3.656720      2.516756      1.381027
  C       1.011154      1.588879      3.466981
  H       0.581494      2.589111      3.612822
  H       0.187818      0.855554      3.461328
  H       1.650331      1.367148      4.338284
  Pd     -0.406354     -0.472802      0.807476
  Br     -1.241190     -2.285052      2.394832
  N      -2.289923     -3.351227     -0.694456
  C       0.659383     -1.329453     -0.632850
  C       0.140698     -1.304808     -1.936073
  H      -0.786316     -0.773707     -2.166321
  C       0.825552     -1.964930     -2.960326
  H       0.413591     -1.941342     -3.973546
  C       2.020254     -2.637649     -2.700206
  H       2.546386     -3.156479     -3.504953
  C       2.507731     -2.694685     -1.395464
  H       3.428360     -3.241947     -1.168472
  C       1.833734     -2.042009     -0.357863
  H       2.243717     -2.083202      0.650578
  C      -1.380336     -4.301515     -1.132755
  C      -1.293090     -4.636624     -2.503922
  H      -1.911505     -4.089216     -3.228267
  C      -0.434958     -5.636111     -2.930214
  H      -0.386837     -5.881268     -3.999324
  C       0.377048     -6.332439     -2.028756
  H       1.045066     -7.120733     -2.364984
  C       0.306520     -5.989404     -0.665839
  H       0.936567     -6.514152      0.055643
  C      -0.551910     -4.992015     -0.223610
  H      -0.587711     -4.732157      0.842112
  H      -2.574925     -2.667843     -1.385883
  H      -2.104176     -2.943521      0.215525
  H       0.936044      4.307086      1.590512
  H      -0.603209      6.062570      2.298851
  H      -3.076897      5.637274      2.288477
  H      -3.923442      3.435127      1.543824
  H      -3.460920      0.972599      2.692986
  H      -2.127184      1.456067     -1.382642
  H      -5.003463     -1.597883     -0.403690
75
Coordinates from ORCA-job PR-102-n_MEP E -4338.932816278539
  C      -1.977420      2.603856      1.129048
  C      -0.584123      2.855654      1.121089
  C      -0.130787      4.123675      1.535815
  C      -1.008331      5.126098      1.942006
  C      -2.381519      4.878030      1.948280
  C      -2.847680      3.629603      1.547503
  C      -2.659224      1.335371      0.727662
  C      -2.715580      0.919462     -0.617571
  C      -3.550383     -0.132033     -0.999087
  C      -4.334734     -0.793826     -0.047637
  C      -4.275141     -0.400379      1.290540
  C      -3.445910      0.655732      1.675933
  H      -3.598699     -0.425866     -2.049540
  H      -4.878750     -0.916135      2.039875
  P       0.681606      1.574564      0.683548
  C       1.527805      2.222818     -0.894026
  C       1.876876      1.523384      2.200895
  C       0.476471      2.113615     -2.009061
  H       0.929018      2.441748     -2.957856
  H       0.121621      1.088202     -2.146302
  H      -0.388077      2.764997     -1.813780
  C       1.974180      3.691521     -0.818954
  H       2.693746      3.888892     -0.015996
  H       2.473245      3.933275     -1.771077
  H       1.122324      4.377177     -0.717890
  C       2.741025      1.335111     -1.217677
  H       2.481912      0.272213     -1.269469
  H       3.140168      1.635463     -2.199283
  H       3.550838      1.460076     -0.485437
  C       2.581260      0.155222      2.203155
  H       1.860733     -0.666569      2.317236
  H       3.165899     -0.015711      1.290402
  H       3.276140      0.122644      3.057668
  C       2.958603      2.616159      2.235464
  H       2.552233      3.635933      2.276903
  H       3.550518      2.467921      3.154352
  H       3.653304      2.541704      1.386203
  C       1.004865      1.614843      3.469392
  H       0.570180      2.613863      3.608558
  H       0.184568      0.877957      3.464087
  H       1.641388      1.399706      4.344187
  Pd     -0.410123     -0.459015      0.827223
  Br     -1.226741     -2.327529      2.352251
  N      -2.306423     -3.367686     -0.733628
  C       0.665429     -1.338679     -0.592259
  C       0.151874     -1.323610     -1.897437
  H      -0.775964     -0.796461     -2.133613
  C       0.841197     -1.988596     -2.915952
  H       0.433697     -1.970526     -3.930805
  C       2.036938     -2.657016     -2.647329
  H       2.567676     -3.178268     -3.447078
  C       2.519371     -2.705297     -1.339808
  H       3.440652     -3.248563     -1.106335
  C       1.839326     -2.047859     -0.308748
  H       2.244308     -2.084251      0.702136
  C      -1.400042     -4.319012     -1.182566
  C      -1.315980     -4.641080     -2.553859
  H      -1.936512     -4.088908     -3.273359
  C      -0.456493     -5.636093     -2.992375
  H      -0.409417     -5.871237     -4.062580
  C       0.359636     -6.337568     -2.096991
  H       1.029101     -7.120871     -2.441712
  C       0.289949     -6.008593     -0.731381
  H       0.921885     -6.536640     -0.015365
  C      -0.571553     -5.014940     -0.278034
  H      -0.605343     -4.765055      0.788058
  H      -2.589659     -2.679747     -1.420345
  H      -2.114529     -2.967266      0.177595
  H       0.934045      4.336988      1.561832
  H      -0.612323      6.091119      2.260358
  H      -3.083296      5.651587      2.266471
  H      -3.921507      3.436734      1.547862
  H      -3.421274      0.973231      2.721456
  H      -2.141704      1.455665     -1.371779
  H      -4.990371     -1.610927     -0.351063
75
Coordinates from ORCA-job PR-102-n_MEP E -4338.933922211192
  C      -1.971734      2.613698      1.132878
  C      -0.580505      2.873100      1.114896
  C      -0.132091      4.148057      1.512572
  C      -1.013725      5.149764      1.912295
  C      -2.385496      4.893655      1.928584
  C      -2.846793      3.638074      1.544281
  C      -2.646123      1.336238      0.747331
  C      -2.719014      0.917029     -0.596506
  C      -3.552451     -0.140277     -0.963945
  C      -4.320400     -0.804087     -0.000039
  C      -4.243839     -0.408295      1.336242
  C      -3.415112      0.653513      1.708128
  H      -3.614028     -0.436431     -2.013162
  H      -4.834659     -0.925634      2.094983
  P       0.682566      1.586798      0.689341
  C       1.529844      2.218924     -0.894256
  C       1.874822      1.548357      2.207535
  C       0.477812      2.098823     -2.008020
  H       0.929868      2.417752     -2.960394
  H       0.122562      1.071986     -2.134588
  H      -0.386672      2.752116     -1.818164
  C       1.978212      3.688113     -0.835079
  H       2.697456      3.892921     -0.033375
  H       2.478290      3.919079     -1.789698
  H       1.127027      4.375959     -0.741653
  C       2.742579      1.327041     -1.208985
  H       2.482853      0.263642     -1.248524
  H       3.141271      1.616302     -2.194304
  H       3.552603      1.460181     -0.478142
  C       2.584110      0.182779      2.220057
  H       1.865787     -0.640286      2.338787
  H       3.170343      0.006866      1.309185
  H       3.277989      0.158048      3.075805
  C       2.951724      2.645803      2.238907
  H       2.540155      3.663791      2.272382
  H       3.541812      2.506323      3.160522
  H       3.648906      2.568964      1.391789
  C       0.998073      1.643085      3.472500
  H       0.557955      2.640724      3.604238
  H       0.181140      0.902326      3.467799
  H       1.631843      1.435458      4.351037
  Pd     -0.413881     -0.446795      0.846678
  Br     -1.214603     -2.366897      2.309293
  N      -2.323159     -3.384799     -0.776023
  C       0.673449     -1.347326     -0.550286
  C       0.165304     -1.344238     -1.857611
  H      -0.762709     -0.821084     -2.100766
  C       0.860072     -2.015020     -2.868922
  H       0.457099     -2.004467     -3.885777
  C       2.055964     -2.679334     -2.590092
  H       2.591571     -3.204679     -3.384279
  C       2.532652     -2.716833     -1.279939
  H       3.454310     -3.256942     -1.038711
  C       1.846646     -2.053283     -0.256745
  H       2.245861     -2.083321      0.756623
  C      -1.421357     -4.335217     -1.235216
  C      -1.340356     -4.644962     -2.608774
  H      -1.963706     -4.086237     -3.321601
  C      -0.480522     -5.634005     -3.059416
  H      -0.434738     -5.858292     -4.131785
  C       0.340155     -6.342230     -2.172129
  H       1.010903     -7.119808     -2.526161
  C       0.271316     -6.027568     -0.803084
  H       0.906255     -6.560535     -0.093545
  C      -0.591551     -5.040083     -0.338081
  H      -0.623632     -4.799837      0.729492
  H      -2.607876     -2.692289     -1.455903
  H      -2.125736     -2.992405      0.138633
  H       0.931428      4.368153      1.530056
  H      -0.622214      6.120999      2.217275
  H      -3.090137      5.666774      2.241814
  H      -3.919514      3.438534      1.552163
  H      -3.378409      0.974318      2.752209
  H      -2.158039      1.454792     -1.359494
  H      -4.975801     -1.625365     -0.293146
75
Coordinates from ORCA-job PR-102-n_MEP E -4338.935045975021
  C      -1.966292      2.623476      1.137027
  C      -0.577239      2.890197      1.108553
  C      -0.133765      4.172280      1.488072
  C      -1.019348      5.173544      1.880619
  C      -2.389772      4.909489      1.907795
  C      -2.846055      3.646585      1.540706
  C      -2.633127      1.337012      0.767707
  C      -2.723025      0.914097     -0.574078
  C      -3.554780     -0.149063     -0.927067
  C      -4.305372     -0.815241      0.049767
  C      -4.211127     -0.416548      1.384172
  C      -3.383030      0.651446      1.741456
  H      -3.630127     -0.448106     -1.974425
  H      -4.787858     -0.935495      2.152295
  P       0.683325      1.598249      0.695803
  C       1.531614      2.214123     -0.893997
  C       1.872690      1.574132      2.214899
  C       0.478949      2.082759     -2.006353
  H       0.930605      2.392221     -2.962252
  H       0.123259      1.054603     -2.121930
  H      -0.385304      2.738056     -1.821987
  C       1.982013      3.683570     -0.851405
  H       2.700775      3.896530     -0.051164
  H       2.483319      3.903291     -1.808332
  H       1.131639      4.373570     -0.766261
  C       2.743951      1.318077     -1.199448
  H       2.483637      0.254282     -1.226426
  H       3.142240      1.595819     -2.188528
  H       3.554344      1.459591     -0.470195
  C       2.587409      0.211596      2.238131
  H       1.871601     -0.612930      2.361413
  H       3.175611      0.030863      1.329379
  H       3.279956      0.195208      3.095255
  C       2.944179      2.676726      2.242267
  H       2.527205      3.692704      2.267318
  H       3.532585      2.547014      3.166510
  H       3.644089      2.597578      1.397555
  C       0.991265      1.672619      3.476266
  H       0.545500      2.668805      3.600008
  H       0.177877      0.927888      3.472253
  H       1.622238      1.473010      4.358629
  Pd     -0.416611     -0.435862      0.865694
  Br     -1.207271     -2.400952      2.265189
  N      -2.339906     -3.402350     -0.819451
  C       0.682717     -1.356040     -0.508342
  C       0.180378     -1.365650     -1.817480
  H      -0.747769     -0.846666     -2.068357
  C       0.879825     -2.043944     -2.820802
  H       0.481652     -2.042032     -3.839267
  C       2.075114     -2.705163     -2.531173
  H       2.615265     -3.235495     -3.318714
  C       2.546398     -2.730241     -1.218149
  H       3.467177     -3.267444     -0.968645
  C       1.854716     -2.058478     -0.203628
  H       2.247969     -2.081635      0.812136
  C      -1.442584     -4.349698     -1.289913
  C      -1.365335     -4.645880     -2.665840
  H      -1.991013     -4.081631     -3.371171
  C      -0.504082     -5.630352     -3.129585
  H      -0.460899     -5.842686     -4.203594
  C       0.319687     -6.344733     -2.250086
  H       0.992129     -7.117616     -2.614792
  C       0.253089     -6.046134     -0.879026
  H       0.890492     -6.584195     -0.175438
  C      -0.611230     -5.063779     -0.400673
  H      -0.641363     -4.834403      0.667892
  H      -2.628407     -2.704155     -1.491352
  H      -2.137568     -3.017769      0.098967
  H       0.928458      4.399343      1.496491
  H      -0.632531      6.151065      2.171434
  H      -3.097196      5.682109      2.215578
  H      -3.917413      3.440331      1.556592
  H      -3.333999      0.975846      2.783847
  H      -2.175745      1.453557     -1.346261
  H      -4.959798     -1.640897     -0.232085
75
Coordinates from ORCA-job PR-102-n_MEP E -4338.936129719793
  C      -1.961040      2.633513      1.141147
  C      -0.574134      2.907671      1.101900
  C      -0.135986      4.197034      1.461474
  C      -1.025629      5.197758      1.846275
  C      -2.394223      4.925615      1.885128
  C      -2.845515      3.655583      1.537008
  C      -2.619758      1.337823      0.789342
  C      -2.727930      0.910729     -0.550423
  C      -3.557919     -0.158735     -0.887353
  C      -4.288836     -0.826969      0.102838
  C      -4.175951     -0.425425      1.434467
  C      -3.349318      0.649221      1.776404
  H      -3.647510     -0.460935     -1.932959
  H      -4.737280     -0.945960      2.213006
  P       0.684135      1.609847      0.703022
  C       1.533591      2.208223     -0.893372
  C       1.870411      1.601618      2.223090
  C       0.480023      2.065059     -2.003886
  H       0.931235      2.364446     -2.963390
  H       0.123820      1.035661     -2.107929
  H      -0.384102      2.722396     -1.825445
  C       1.985850      3.677830     -0.868379
  H       2.703818      3.899829     -0.069626
  H       2.488671      3.885460     -1.827494
  H       1.136199      4.369966     -0.792489
  C       2.745361      1.308054     -1.188848
  H       2.484393      0.244155     -1.202462
  H       3.143064      1.573434     -2.181657
  H       3.556050      1.458300     -0.461512
  C       2.591216      0.242596      2.257746
  H       1.878303     -0.583678      2.385787
  H       3.181838      0.056895      1.351438
  H       3.282123      0.235161      3.116419
  C       2.935900      2.709866      2.245700
  H       2.512941      3.723481      2.261447
  H       3.522552      2.591137      3.172673
  H       3.638687      2.628270      1.403584
  C       0.984105      1.704316      3.480607
  H       0.532541      2.698920      3.595665
  H       0.174587      0.955398      3.477482
  H       1.612166      1.513391      4.366866
  Pd     -0.418363     -0.425314      0.885206
  Br     -1.200647     -2.431974      2.220531
  N      -2.358634     -3.421063     -0.864167
  C       0.693126     -1.364519     -0.464800
  C       0.197503     -1.387884     -1.775693
  H      -0.730689     -0.873736     -2.035348
  C       0.901377     -2.074986     -2.770584
  H       0.508414     -2.082762     -3.790485
  C       2.095394     -2.734018     -2.468969
  H       2.640276     -3.270114     -3.249168
  C       2.560430     -2.745551     -1.152811
  H       3.479854     -3.280037     -0.894392
  C       1.862939     -2.064137     -0.147906
  H       2.249999     -2.080092      0.870411
  C      -1.464369     -4.363220     -1.347107
  C      -1.390602     -4.645605     -2.726692
  H      -2.019517     -4.074501     -3.423036
  C      -0.529222     -5.623996     -3.203644
  H      -0.488898     -5.823966     -4.280172
  C       0.297453     -6.346853     -2.333858
  H       0.971315     -7.114303     -2.710003
  C       0.233510     -6.064208     -0.960183
  H       0.873827     -6.609605     -0.263442
  C      -0.630274     -5.088776     -0.468335
  H      -0.659204     -4.870626      0.602511
  H      -2.650611     -2.715970     -1.526833
  H      -2.149775     -3.043936      0.057717
  H       0.924919      4.430963      1.460193
  H      -0.643523      6.181876      2.121457
  H      -3.104615      5.697837      2.187111
  H      -3.915317      3.442175      1.561327
  H      -3.286882      0.977931      2.816829
  H      -2.195419      1.452017     -1.331959
  H      -4.942225     -1.657998     -0.166991
75
Coordinates from ORCA-job PR-102-n_MEP E -4338.937168178154
  C      -1.955426      2.644154      1.145838
  C      -0.571221      2.925791      1.094086
  C      -0.138624      4.223002      1.431849
  C      -1.032641      5.223511      1.807582
  C      -2.399187      4.942888      1.859834
  C      -2.844924      3.664995      1.532634
  C      -2.605679      1.338943      0.813086
  C      -2.733662      0.907308     -0.523988
  C      -3.561628     -0.169529     -0.843495
  C      -4.270683     -0.839874      0.161624
  C      -4.136826     -0.434332      1.489663
  C      -3.312250      0.647518      1.814370
  H      -3.667007     -0.475245     -1.886562
  H      -4.680657     -0.956931      2.279634
  P       0.684694      1.621804      0.711273
  C       1.535419      2.201039     -0.891904
  C       1.867719      1.631740      2.232293
  C       0.481095      2.044791     -2.000625
  H       0.931883      2.333186     -2.963989
  H       0.124483      1.014099     -2.092080
  H      -0.382897      2.704211     -1.828529
  C       1.989749      3.670596     -0.886730
  H       2.706519      3.902751     -0.089626
  H       2.494452      3.864711     -1.847976
  H       1.140882      4.364750     -0.821483
  C       2.746934      1.296675     -1.176685
  H       2.485591      0.232654     -1.175555
  H       3.143964      1.548511     -2.173582
  H       3.558160      1.456779     -0.451757
  C       2.595462      0.276927      2.279678
  H       1.885888     -0.551348      2.412712
  H       3.188963      0.086015      1.376186
  H       3.284410      0.279514      3.140056
  C       2.926336      2.746363      2.249079
  H       2.496737      3.757178      2.254109
  H       3.511020      2.640391      3.178968
  H       3.632370      2.662103      1.409958
  C       0.976213      1.739394      3.485515
  H       0.518550      2.732299      3.590868
  H       0.170746      0.986183      3.483623
  H       1.600941      1.558070      4.376019
  Pd     -0.419552     -0.414747      0.906293
  Br     -1.192680     -2.462365      2.176242
  N      -2.377398     -3.442863     -0.913140
  C       0.704711     -1.373174     -0.417829
  C       0.216727     -1.412140     -1.731119
  H      -0.711185     -0.903359     -2.000377
  C       0.925984     -2.109328     -2.715427
  H       0.538220     -2.128703     -3.737337
  C       2.117679     -2.766007     -2.400256
  H       2.667666     -3.309743     -3.172227
  C       2.575291     -2.761976     -1.081249
  H       3.493106     -3.294759     -0.812181
  C       1.872109     -2.070361     -0.087305
  H       2.251718     -2.077555      0.933647
  C      -1.488971     -4.376387     -1.409205
  C      -1.418708     -4.642855     -2.793394
  H      -2.049589     -4.065025     -3.479512
  C      -0.555911     -5.616459     -3.285915
  H      -0.519649     -5.801283     -4.364557
  C       0.271969     -6.347635     -2.426090
  H       0.948086     -7.110010     -2.815856
  C       0.212622     -6.084800     -1.050970
  H       0.854756     -6.637738     -0.361591
  C      -0.651468     -5.115434     -0.541937
  H      -0.678424     -4.910877      0.529564
  H      -2.675031     -2.728560     -1.565825
  H      -2.161981     -3.071065      0.012599
  H       0.920523      4.464176      1.419480
  H      -0.655618      6.214473      2.065281
  H      -3.112752      5.714765      2.155507
  H      -3.913203      3.444344      1.566806
  H      -3.234419      0.980673      2.852476
  H      -2.218295      1.450093     -1.315754
  H      -4.922201     -1.676901     -0.094816
75
Coordinates from ORCA-job PR-102-n_MEP E -4338.938010177622
  C      -1.949716      2.655096      1.150694
  C      -0.568226      2.944273      1.085654
  C      -0.141705      4.249461      1.398924
  C      -1.040222      5.249795      1.764951
  C      -2.404532      4.960627      1.832104
  C      -2.844348      3.674897      1.527870
  C      -2.590384      1.340404      0.838485
  C      -2.740699      0.902917     -0.494517
  C      -3.565572     -0.180791     -0.794757
  C      -4.250731     -0.853272      0.225527
  C      -4.094578     -0.443212      1.549803
  C      -3.271134      0.646144      1.855778
  H      -3.688309     -0.491094     -1.834969
  H      -4.617909     -0.967846      2.351660
  P       0.685362      1.634479      0.720225
  C       1.537624      2.192630     -0.890380
  C       1.864493      1.663945      2.242259
  C       0.482349      2.021916     -1.996536
  H       0.932547      2.298598     -2.963804
  H       0.125645      0.989946     -2.074435
  H      -0.381710      2.683244     -1.831324
  C       1.993612      3.661782     -0.906224
  H       2.708857      3.905297     -0.111060
  H       2.500495      3.841201     -1.869245
  H       1.145631      4.357869     -0.852726
  C       2.749059      1.284320     -1.163011
  H       2.487785      0.220380     -1.145954
  H       3.145034      1.521511     -2.164085
  H       3.560794      1.455613     -0.440979
  C       2.599726      0.313847      2.303534
  H       1.893861     -0.516684      2.441788
  H       3.196721      0.117676      1.403312
  H       3.286205      0.327390      3.165913
  C       2.915396      2.785378      2.252280
  H       2.478719      3.792935      2.245225
  H       3.497718      2.693700      3.185136
  H       3.624867      2.697913      1.416544
  C       0.967238      1.777271      3.490807
  H       0.503494      2.768502      3.585539
  H       0.165930      1.019671      3.490462
  H       1.588419      1.606236      4.385740
  Pd     -0.422059     -0.405314      0.927580
  Br     -1.190047     -2.488353      2.135869
  N      -2.397862     -3.462180     -0.963592
  C       0.718233     -1.381713     -0.369374
  C       0.237950     -1.438262     -1.684337
  H      -0.689891     -0.935275     -1.963998
  C       0.951736     -2.148096     -2.656773
  H       0.569886     -2.180719     -3.679813
  C       2.140939     -2.802285     -2.326140
  H       2.695170     -3.355467     -3.087784
  C       2.591111     -2.780804     -1.004083
  H       3.506238     -3.310958     -0.723337
  C       1.882557     -2.075590     -0.023211
  H       2.254394     -2.072341      1.000737
  C      -1.512146     -4.391785     -1.477880
  C      -1.446690     -4.639230     -2.864438
  H      -2.081342     -4.052636     -3.540733
  C      -0.585405     -5.604535     -3.375075
  H      -0.552167     -5.774734     -4.455687
  C       0.247052     -6.348604     -2.527714
  H       0.922485     -7.103030     -2.930467
  C       0.189731     -6.104754     -1.148008
  H       0.834509     -6.667476     -0.468793
  C      -0.673481     -5.143675     -0.623687
  H      -0.698440     -4.953810      0.451146
  H      -2.701450     -2.743127     -1.608120
  H      -2.173363     -3.098826     -0.038128
  H       0.915450      4.498220      1.374884
  H      -0.668711      6.248023      2.003696
  H      -3.121501      5.732390      2.120721
  H      -3.910721      3.446513      1.572812
  H      -3.176108      0.983748      2.890750
  H      -2.244084      1.447755     -1.297628
  H      -4.899780     -1.697034     -0.015605
75
Coordinates from ORCA-job PR-102-n_MEP E -4338.938662691545
  C      -1.943747      2.666524      1.155763
  C      -0.565212      2.963486      1.076015
  C      -0.145624      4.276793      1.362467
  C      -1.048605      5.276661      1.717771
  C      -2.410184      4.978974      1.801286
  C      -2.843753      3.685327      1.522516
  C      -2.573590      1.341533      0.866733
  C      -2.748571      0.897738     -0.461863
  C      -3.570148     -0.194005     -0.740403
  C      -4.228373     -0.867673      0.296912
  C      -4.046793     -0.452385      1.615496
  C      -3.225443      0.644346      1.900944
  H      -3.711356     -0.509270     -1.776920
  H      -4.547802     -0.979234      2.430604
  P       0.686163      1.647042      0.729848
  C       1.540027      2.182585     -0.888194
  C       1.860467      1.698693      2.253282
  C       0.483914      1.995781     -1.991496
  H       0.933307      2.259715     -2.962932
  H       0.127638      0.962400     -2.054366
  H      -0.380526      2.658720     -1.833889
  C       1.997518      3.651130     -0.927166
  H       2.711021      3.907205     -0.134224
  H       2.506894      3.814658     -1.891897
  H       1.150437      4.349092     -0.886587
  C       2.751789      1.270788     -1.147702
  H       2.490985      0.207132     -1.113396
  H       3.146674      1.492125     -2.153028
  H       3.563947      1.454431     -0.428955
  C       2.604042      0.354265      2.329850
  H       1.902465     -0.478869      2.473499
  H       3.205074      0.152561      1.433396
  H       3.287583      0.379790      3.194384
  C       2.902655      2.827686      2.255626
  H       2.458199      3.831400      2.234997
  H       3.482220      2.752093      3.191621
  H       3.616016      2.736872      1.423759
  C       0.956950      1.818448      3.496507
  H       0.486836      2.807787      3.579466
  H       0.160099      1.056299      3.497985
  H       1.574128      1.658755      4.396202
  Pd     -0.424965     -0.395323      0.947942
  Br     -1.195747     -2.510841      2.093407
  N      -2.418059     -3.481964     -1.020316
  C       0.733229     -1.390671     -0.316995
  C       0.261191     -1.468166     -1.633544
  H      -0.666476     -0.971881     -1.924732
  C       0.978977     -2.193086     -2.591844
  H       0.601994     -2.242885     -3.616059
  C       2.164593     -2.844994     -2.244144
  H       2.722699     -3.410681     -2.994120
  C       2.607938     -2.801430     -0.919968
  H       3.520161     -3.329520     -0.625976
  C       1.894881     -2.079990      0.046092
  H       2.259501     -2.063610      1.072367
  C      -1.536010     -4.404535     -1.552220
  C      -1.477581     -4.632405     -2.943196
  H      -2.115649     -4.038113     -3.607193
  C      -0.616202     -5.590740     -3.472101
  H      -0.588823     -5.744530     -4.555136
  C       0.218655     -6.345868     -2.638623
  H       0.894421     -7.093888     -3.056409
  C       0.166565     -6.123590     -1.256070
  H       0.813992     -6.696639     -0.586981
  C      -0.694982     -5.170702     -0.713776
  H      -0.716767     -4.996083      0.363923
  H      -2.730471     -2.757264     -1.654865
  H      -2.183710     -3.125375     -0.093654
  H       0.909727      4.533195      1.325454
  H      -0.683145      6.282366      1.935592
  H      -3.130885      5.750412      2.082282
  H      -3.907895      3.448631      1.579289
  H      -3.111140      0.987581      2.932189
  H      -2.273175      1.444160     -1.276743
  H      -4.874162     -1.718974      0.072220
75
Coordinates from ORCA-job PR-102-n_MEP E -4338.939071026544
  C      -1.938106      2.677792      1.160905
  C      -0.562623      2.982352      1.065438
  C      -0.149891      4.303807      1.323389
  C      -1.057834      5.303174      1.667092
  C      -2.416195      4.997097      1.768193
  C      -2.843113      3.695794      1.516657
  C      -2.556469      1.342408      0.896451
  C      -2.757554      0.891099     -0.426742
  C      -3.574997     -0.208918     -0.682033
  C      -4.204566     -0.883093      0.372690
  C      -3.996492     -0.461424      1.684952
  C      -3.177815      0.643164      1.948108
  H      -3.735312     -0.530150     -1.714023
  H      -4.472979     -0.989932      2.513354
  P       0.687691      1.659705      0.739837
  C       1.542669      2.171289     -0.885421
  C       1.856363      1.736029      2.264913
  C       0.485598      1.966841     -1.985419
  H       0.933960      2.217019     -2.961315
  H       0.129988      0.932003     -2.032053
  H      -0.379467      2.631201     -1.836033
  C       2.001317      3.638747     -0.949265
  H       2.712990      3.908122     -0.159170
  H       2.513021      3.785482     -1.915543
  H       1.155148      4.338124     -0.922137
  C       2.754844      1.256099     -1.131449
  H       2.494812      0.192864     -1.079482
  H       3.148656      1.461159     -2.140886
  H       3.567489      1.452393     -0.416369
  C       2.608934      0.397928      2.357880
  H       1.912109     -0.438205      2.507241
  H       3.214392      0.190481      1.465541
  H       3.289162      0.436364      3.224615
  C       2.888555      2.873341      2.259112
  H       2.435260      3.872351      2.224109
  H       3.464748      2.814994      3.198253
  H       3.606157      2.779665      1.431592
  C       0.945929      1.862308      3.502424
  H       0.468967      2.849453      3.572841
  H       0.154020      1.095069      3.506287
  H       1.558995      1.714962      4.407021
  Pd     -0.426464     -0.385905      0.970013
  Br     -1.202481     -2.531036      2.054349
  N      -2.437224     -3.501110     -1.080757
  C       0.750163     -1.399734     -0.261946
  C       0.285925     -1.501561     -1.579143
  H      -0.640673     -1.011445     -1.883435
  C       1.006557     -2.245036     -2.521236
  H       0.634119     -2.314582     -3.545752
  C       2.187042     -2.896137     -2.154569
  H       2.747318     -3.477221     -2.890854
  C       2.625064     -2.825571     -0.829137
  H       3.533529     -3.351125     -0.520820
  C       1.908534     -2.083999      0.119670
  H       2.267270     -2.050848      1.147539
  C      -1.560571     -4.413183     -1.632887
  C      -1.509793     -4.623947     -3.027845
  H      -2.153469     -4.021219     -3.678701
  C      -0.650753     -5.572577     -3.576175
  H      -0.629987     -5.711483     -4.661451
  C       0.189233     -6.340386     -2.758375
  H       0.863614     -7.081396     -3.191667
  C       0.144094     -6.138065     -1.372775
  H       0.794761     -6.722275     -0.715325
  C      -0.713947     -5.194636     -0.811618
  H      -0.731855     -5.035647      0.268553
  H      -2.759756     -2.768099     -1.703861
  H      -2.193843     -3.152211     -0.152735
  H       0.902952      4.567242      1.272461
  H      -0.698438      6.315941      1.862411
  H      -3.140501      5.768186      2.041162
  H      -3.904947      3.450846      1.586314
  H      -3.043442      0.992918      2.974809
  H      -2.304470      1.438790     -1.253796
  H      -4.845920     -1.742446      0.166023
75
Coordinates from ORCA-job PR-102-n_MEP E -4338.939275115725
  C      -1.932159      2.689281      1.166194
  C      -0.560418      3.001208      1.053522
  C      -0.154821      4.330624      1.280262
  C      -1.067530      5.330207      1.611059
  C      -2.422800      5.015855      1.731214
  C      -2.842494      3.706316      1.509750
  C      -2.538046      1.343194      0.928534
  C      -2.767314      0.883102     -0.387201
  C      -3.579861     -0.225592     -0.617479
  C      -4.178564     -0.899100      0.455517
  C      -3.942184     -0.470063      1.760285
  C      -3.126049      0.643197      1.998925
  H      -3.760640     -0.554772     -1.643947
  H      -4.391824     -0.999764      2.602703
  P       0.689992      1.674626      0.751213
  C       1.546644      2.158711     -0.882610
  C       1.851686      1.777569      2.277530
  C       0.488126      1.934655     -1.977823
  H       0.935245      2.168972     -2.958287
  H       0.133276      0.898650     -2.006014
  H      -0.377497      2.600505     -1.837702
  C       2.005875      3.624455     -0.973062
  H       2.715818      3.908567     -0.186624
  H       2.519548      3.753021     -1.940722
  H       1.160648      4.325050     -0.960238
  C       2.759028      1.240014     -1.113384
  H       2.499672      0.177817     -1.042620
  H       3.151468      1.427497     -2.126719
  H       3.572069      1.449395     -0.402465
  C       2.614300      0.446518      2.388263
  H       1.922486     -0.392847      2.542676
  H       3.225001      0.233547      1.500579
  H       3.290431      0.498200      3.257722
  C       2.872878      2.923988      2.263117
  H       2.409666      3.917441      2.212185
  H       3.445034      2.884688      3.205592
  H       3.595423      2.827580      1.440576
  C       0.933744      1.910378      3.508727
  H       0.448979      2.894720      3.565525
  H       0.147684      1.137317      3.514980
  H       1.542054      1.776651      4.418603
  Pd     -0.426690     -0.374786      0.993482
  Br     -1.207709     -2.549475      2.017327
  N      -2.458579     -3.520091     -1.146191
  C       0.769303     -1.407375     -0.202908
  C       0.312340     -1.536896     -1.520303
  H      -0.613142     -1.053937     -1.838468
  C       1.034257     -2.302863     -2.442996
  H       0.665668     -2.395830     -3.467328
  C       2.208580     -2.952603     -2.055309
  H       2.770360     -3.552131     -2.776017
  C       2.642052     -2.850971     -0.730158
  H       3.546776     -3.373785     -0.406092
  C       1.924175     -2.085770      0.198719
  H       2.277179     -2.033177      1.227776
  C      -1.584940     -4.425789     -1.721352
  C      -1.545609     -4.612291     -3.119742
  H      -2.193545     -4.002164     -3.756413
  C      -0.686931     -5.552632     -3.690469
  H      -0.674703     -5.673168     -4.777962
  C       0.156617     -6.333086     -2.890770
  H       0.829873     -7.066632     -3.341127
  C       0.119831     -6.154997     -1.501711
  H       0.773131     -6.751242     -0.857584
  C      -0.736221     -5.220519     -0.920243
  H      -0.748314     -5.080770      0.163325
  H      -2.787055     -2.778819     -1.755044
  H      -2.205061     -3.184670     -0.216925
  H       0.895220      4.601340      1.214868
  H      -0.715235      6.350393      1.781683
  H      -3.151197      5.786757      1.995185
  H      -3.901928      3.453575      1.593809
  H      -2.969857      0.999351      3.019988
  H      -2.338568      1.431091     -1.227469
  H      -4.814650     -1.767418      0.268064
