75
Coordinates from ORCA-job PR-103-p Relaxed Surface Scan Step 1 E -102.615942295710
  C      -2.737262      0.395739      0.104436
  C      -1.341074      0.450005      0.242889
  C      -0.786484      1.562534      0.880993
  C      -1.555361      2.616996      1.329741
  C      -2.927757      2.582963      1.149394
  C      -3.499984      1.478203      0.555171
  C      -3.520040     -0.734790     -0.436424
  C      -3.298327     -1.287096     -1.701551
  C      -4.146564     -2.279471     -2.189369
  C      -5.200951     -2.745051     -1.420262
  C      -5.422735     -2.205050     -0.163571
  C      -4.596882     -1.207175      0.318286
  H      -4.006684     -2.660004     -3.193696
  H      -6.238514     -2.564877      0.446486
  P      -0.161117     -0.844169     -0.324542
  C       0.767808      0.092329     -1.718020
  C       1.016786     -1.143034      1.168866
  C      -0.240181      0.253434     -2.858812
  H       0.230008      0.771511     -3.693822
  H      -0.566613     -0.720138     -3.214199
  H      -1.097467      0.845388     -2.538433
  C       1.282640      1.492732     -1.382271
  H       1.995123      1.498779     -0.566301
  H       1.795014      1.879331     -2.263450
  H       0.465728      2.172521     -1.154513
  C       1.930698     -0.765887     -2.218691
  H       1.606632     -1.787393     -2.401635
  H       2.304388     -0.360007     -3.158148
  H       2.758214     -0.783625     -1.515729
  C       1.459155     -2.604084      1.005947
  H       0.587019     -3.266534      0.903346
  H       2.094423     -2.712095      0.126829
  H       2.023170     -2.928993      1.879583
  C       2.282086     -0.289827      1.290195
  H       2.063987      0.753005      1.501989
  H       2.858812     -0.670243      2.133927
  H       2.913512     -0.355111      0.410096
  C       0.230737     -0.993820      2.475152
  H       0.040924      0.047837      2.720417
  H      -0.725875     -1.504889      2.429999
  H       0.799482     -1.434645      3.293100
  Pd     -1.220278     -2.859359     -0.765041
  Br     -2.353897     -3.299945      1.554765
  N      -2.263697     -4.827129     -1.251495
  C      -0.262563     -3.303503     -2.469256
  C      -0.814535     -3.135522     -3.732145
  H      -1.717000     -2.552301     -3.876961
  C      -0.225580     -3.719152     -4.845678
  H      -0.669735     -3.572863     -5.821147
  C       0.916269     -4.487313     -4.710499
  H       1.373835     -4.940500     -5.578258
  C       1.460983     -4.681960     -3.453099
  H       2.342989     -5.294994     -3.330199
  C       0.872245     -4.098781     -2.341867
  H       1.314157     -4.281819     -1.366317
  C      -1.406037     -5.946242     -1.386914
  C      -1.369557     -6.684208     -2.564232
  H      -2.019711     -6.417418     -3.386465
  C      -0.489824     -7.744307     -2.690394
  H      -0.464572     -8.308310     -3.611409
  C       0.350851     -8.083310     -1.644387
  H       1.035795     -8.911991     -1.745984
  C       0.310139     -7.355523     -0.465466
  H       0.962631     -7.615178      0.355529
  C      -0.561796     -6.292591     -0.334181
  H      -0.591730     -5.717774      0.584861
  H      -2.926831     -4.766412     -2.023395
  H      -2.770596     -4.850914     -0.361183
  H       0.277685      1.599655      1.036642
  H      -1.085445      3.459317      1.816060
  H      -3.547017      3.403811      1.479645
  H      -4.571767      1.441467      0.420218
  H      -4.764988     -0.808662      1.308848
  H      -2.556776     -0.841101     -2.354052
  H      -5.853328     -3.518775     -1.800703
75
Coordinates from ORCA-job PR-103-p Relaxed Surface Scan Step 2 E -102.615879164670
  C      -2.738049      0.402941      0.097275
  C      -1.342119      0.454710      0.238672
  C      -0.786756      1.567865      0.875007
  C      -1.554314      2.625309      1.318843
  C      -2.926276      2.594086      1.134582
  C      -3.499416      1.488752      0.542364
  C      -3.521962     -0.728607     -0.439670
  C      -3.297789     -1.289473     -1.700659
  C      -4.145835     -2.284541     -2.183443
  C      -5.202890     -2.743365     -1.413935
  C      -5.427889     -2.193832     -0.161993
  C      -4.601670     -1.194055      0.315196
  H      -4.003529     -2.673068     -3.184372
  H      -6.245931     -2.548201      0.448209
  P      -0.163445     -0.843001     -0.323522
  C       0.770501      0.089705     -1.715630
  C       1.008625     -1.141418      1.174168
  C      -0.234870      0.249841     -2.858971
  H       0.237548      0.766132     -3.693827
  H      -0.561604     -0.724036     -3.213400
  H      -1.092297      0.843091     -2.541330
  C       1.286516      1.489788     -1.380419
  H       1.996878      1.495450     -0.562502
  H       1.801877      1.874295     -2.260766
  H       0.470150      2.171232     -1.155717
  C       1.933839     -0.770511     -2.211833
  H       1.609055     -1.791713     -2.394976
  H       2.310980     -0.365921     -3.150452
  H       2.759000     -0.788367     -1.506082
  C       1.450897     -2.603038      1.015201
  H       0.578230     -3.265083      0.912356
  H       2.088014     -2.713113      0.137706
  H       2.012946     -2.926219      1.890791
  C       2.273784     -0.288698      1.299966
  H       2.055453      0.754564      1.509317
  H       2.846857     -0.668288      2.146544
  H       2.908612     -0.355595      0.422438
  C       0.215961     -0.991198      2.476240
  H       0.024591      0.050626      2.719623
  H      -0.740345     -1.502475      2.425871
  H       0.780203     -1.431314      3.297661
  Pd     -1.220889     -2.859319     -0.759333
  Br     -2.375420     -3.302996      1.553599
  N      -2.247126     -4.834697     -1.225944
  C      -0.263531     -3.305190     -2.463952
  C      -0.819064     -3.138590     -3.725371
  H      -1.722641     -2.556678     -3.868141
  C      -0.232047     -3.721577     -4.840255
  H      -0.679230     -3.576544     -5.814502
  C       0.911617     -4.487471     -4.707906
  H       1.367477     -4.940422     -5.576673
  C       1.460485     -4.679925     -3.452023
  H       2.344309     -5.290749     -3.331305
  C       0.873599     -4.097503     -2.339383
  H       1.318962     -4.278990     -1.365267
  C      -1.392598     -5.951930     -1.383147
  C      -1.379650     -6.686946     -2.562994
  H      -2.045733     -6.417413     -3.371479
  C      -0.503554     -7.747411     -2.708959
  H      -0.496865     -8.309227     -3.631671
  C       0.356842     -8.090106     -1.680281
  H       1.038589     -8.919364     -1.797281
  C       0.339820     -7.365390     -0.498872
  H       1.007616     -7.628158      0.308689
  C      -0.528396     -6.302084     -0.347972
  H      -0.540360     -5.729683      0.573189
  H      -2.938069     -4.778976     -1.973344
  H      -2.718097     -4.850181     -0.314901
  H       0.277091      1.602948      1.033291
  H      -1.083719      3.467852      1.804101
  H      -3.544504      3.417407      1.460563
  H      -4.570913      1.454191      0.404657
  H      -4.771587     -0.788734      1.302702
  H      -2.554249     -0.848505     -2.354436
  H      -5.854900     -3.519205     -1.790685
75
Coordinates from ORCA-job PR-103-p Relaxed Surface Scan Step 3 E -102.615708485010
  C      -2.738830      0.406693      0.094778
  C      -1.342967      0.459507      0.236529
  C      -0.788726      1.573142      0.872981
  C      -1.557227      2.630486      1.315463
  C      -2.928993      2.598605      1.129891
  C      -3.501168      1.492418      0.538321
  C      -3.521268     -0.726753     -0.440175
  C      -3.295182     -1.290548     -1.699517
  C      -4.141288     -2.288303     -2.180293
  C      -5.198527     -2.746307     -1.410490
  C      -5.425519     -2.193658     -0.160272
  C      -4.600914     -1.191673      0.315071
  H      -3.997360     -2.679741     -3.179870
  H      -6.243662     -2.547541      0.450066
  P      -0.163787     -0.838535     -0.323960
  C       0.772522      0.092151     -1.715431
  C       1.004631     -1.137521      1.176109
  C      -0.230356      0.248056     -2.861570
  H       0.243296      0.762890     -3.696615
  H      -0.554971     -0.727183     -3.214290
  H      -1.089423      0.840835     -2.547472
  C       1.286414      1.493544     -1.382546
  H       1.994252      1.501956     -0.562471
  H       1.804200      1.875992     -2.262361
  H       0.468857      2.174998     -1.162326
  C       1.937981     -0.768252     -2.206233
  H       1.614314     -1.789978     -2.388559
  H       2.318009     -0.365173     -3.144326
  H       2.760723     -0.784284     -1.497587
  C       1.448997     -2.598447      1.016822
  H       0.577179     -3.261408      0.912113
  H       2.087720     -2.707263      0.140341
  H       2.009858     -2.921520      1.893214
  C       2.268321     -0.283488      1.307080
  H       2.048165      0.759279      1.516920
  H       2.839206     -0.663377      2.154998
  H       2.905914     -0.348662      0.431395
  C       0.206511     -0.990442      2.475183
  H       0.012116      0.050746      2.718953
  H      -0.748695     -1.503485      2.419878
  H       0.768035     -1.430574      3.298446
  Pd     -1.217620     -2.856691     -0.759699
  Br     -2.380585     -3.312750      1.551543
  N      -2.236452     -4.834379     -1.209350
  C      -0.258937     -3.305694     -2.462916
  C      -0.815652     -3.142774     -3.724207
  H      -1.719797     -2.561985     -3.867916
  C      -0.228904     -3.728422     -4.837830
  H      -0.677002     -3.586675     -5.812123
  C       0.915647     -4.492770     -4.704169
  H       1.371194     -4.947830     -5.571988
  C       1.465897     -4.680937     -3.448252
  H       2.350544     -5.290348     -3.326534
  C       0.879176     -4.096184     -2.336746
  H       1.325677     -4.274084     -1.362491
  C      -1.390254     -5.954388     -1.379930
  C      -1.396368     -6.687780     -2.561028
  H      -2.072398     -6.414128     -3.359796
  C      -0.526889     -7.751639     -2.720523
  H      -0.535150     -8.312021     -3.644123
  C       0.346096     -8.099687     -1.704301
  H       1.022699     -8.931580     -1.831965
  C       0.348204     -7.376872     -0.521615
  H       1.025711     -7.643947      0.276403
  C      -0.513376     -6.310260     -0.357238
  H      -0.510345     -5.739566      0.565043
  H      -2.949423     -4.781910     -1.935886
  H      -2.677115     -4.832950     -0.281777
  H       0.274845      1.608596      1.032849
  H      -1.087483      3.473431      1.800842
  H      -3.547860      3.421884      1.454758
  H      -4.572570      1.456991      0.400123
  H      -4.772140     -0.784041      1.301407
  H      -2.551685     -0.850110     -2.353830
  H      -5.849251     -3.523993     -1.785673
75
Coordinates from ORCA-job PR-103-p Relaxed Surface Scan Step 4 E -102.615416716930
  C      -2.739410      0.407933      0.093203
  C      -1.343635      0.463311      0.234512
  C      -0.791064      1.578897      0.868957
  C      -1.561307      2.635607      1.309944
  C      -2.933096      2.601029      1.124921
  C      -3.503591      1.492910      0.535316
  C      -3.519432     -0.727818     -0.440308
  C      -3.292174     -1.292131     -1.699251
  C      -4.135806     -2.292568     -2.178913
  C      -5.191691     -2.752535     -1.408360
  C      -5.420054     -2.199056     -0.158740
  C      -4.597862     -1.194550      0.315525
  H      -3.990939     -2.684855     -3.178020
  H      -6.237235     -2.554422      0.452021
  P      -0.163101     -0.834262     -0.324105
  C       0.775138      0.095303     -1.714261
  C       1.001914     -1.132709      1.178252
  C      -0.226343      0.250218     -2.861780
  H       0.248453      0.763699     -3.696990
  H      -0.551159     -0.725384     -3.213469
  H      -1.085494      0.843787     -2.549386
  C       1.288838      1.496661     -1.381090
  H       1.995303      1.504976     -0.559760
  H       1.808180      1.878737     -2.260138
  H       0.471077      2.178358     -1.162318
  C       1.941046     -0.766030     -2.202337
  H       1.616916     -1.787590     -2.385076
  H       2.323410     -0.363526     -3.139712
  H       2.762141     -0.782364     -1.491771
  C       1.448949     -2.592914      1.019845
  H       0.578192     -3.257199      0.914282
  H       2.088978     -2.701053      0.144251
  H       2.009116     -2.914807      1.897121
  C       2.263674     -0.276557      1.313218
  H       2.041116      0.765870      1.522182
  H       2.832704     -0.655367      2.162854
  H       2.903887     -0.340752      0.439344
  C       0.198681     -0.987835      2.474386
  H       0.001062      0.052882      2.717658
  H      -0.755240     -1.502920      2.414820
  H       0.757800     -1.427118      3.299726
  Pd     -1.213311     -2.853970     -0.760812
  Br     -2.384230     -3.328041      1.548727
  N      -2.226977     -4.831575     -1.196942
  C      -0.253536     -3.305750     -2.462722
  C      -0.810659     -3.144049     -3.723892
  H      -1.713786     -2.561838     -3.868225
  C      -0.225357     -3.732898     -4.836576
  H      -0.673688     -3.592418     -5.810927
  C       0.918016     -4.498826     -4.701883
  H       1.372271     -4.956542     -5.568974
  C       1.468786     -4.685185     -3.445941
  H       2.352563     -5.295689     -3.323492
  C       0.883499     -4.097433     -2.335247
  H       1.330225     -4.274019     -1.360879
  C      -1.389738     -5.955154     -1.377497
  C      -1.414151     -6.688929     -2.558363
  H      -2.099003     -6.411991     -3.348443
  C      -0.551985     -7.756919     -2.728727
  H      -0.574692     -8.317324     -3.652102
  C       0.332224     -8.109170     -1.723671
  H       1.003213     -8.944255     -1.859850
  C       0.352689     -7.386318     -0.541211
  H       1.038812     -7.656773      0.248283
  C      -0.501553     -6.315594     -0.366046
  H      -0.483912     -5.745255      0.556272
  H      -2.957628     -4.781213     -1.905694
  H      -2.640328     -4.811875     -0.255477
  H       0.272505      1.616468      1.028404
  H      -1.092884      3.480174      1.793772
  H      -3.553245      3.423808      1.448602
  H      -4.574966      1.455397      0.397471
  H      -4.770039     -0.786268      1.301438
  H      -2.549917     -0.850301     -2.354160
  H      -5.840367     -3.532434     -1.782520
75
Coordinates from ORCA-job PR-103-p Relaxed Surface Scan Step 5 E -102.614990251490
  C      -2.739767      0.408306      0.091903
  C      -1.344118      0.467846      0.232510
  C      -0.794525      1.585162      0.866449
  C      -1.567743      2.639956      1.306866
  C      -2.939490      2.601347      1.122257
  C      -3.507064      1.491167      0.533662
  C      -3.516177     -0.730433     -0.440597
  C      -3.288024     -1.293492     -1.700000
  C      -4.128462     -2.296870     -2.179218
  C      -5.181832     -2.761024     -1.407671
  C      -5.411176     -2.208626     -0.157719
  C      -4.592244     -1.201190      0.316079
  H      -3.982920     -2.688597     -3.178440
  H      -6.226491     -2.567203      0.453657
  P      -0.161316     -0.828334     -0.324464
  C       0.778478      0.099698     -1.713958
  C       1.000074     -1.125859      1.180307
  C      -0.221339      0.251539     -2.863328
  H       0.254542      0.762860     -3.699227
  H      -0.545645     -0.725065     -3.212759
  H      -1.081015      0.845774     -2.553636
  C       1.290827      1.501891     -1.382396
  H       1.995455      1.511975     -0.559488
  H       1.811949      1.882517     -2.261011
  H       0.472272      2.183630     -1.166781
  C       1.945653     -0.762180     -2.198007
  H       1.621860     -1.783978     -2.380270
  H       2.330446     -0.360895     -3.134897
  H       2.764810     -0.777529     -1.485166
  C       1.450229     -2.585133      1.022360
  H       0.580728     -3.250878      0.915389
  H       2.091846     -2.692127      0.147804
  H       2.009460     -2.906066      1.900577
  C       2.259500     -0.267160      1.320072
  H       2.034015      0.774730      1.528509
  H       2.826465     -0.644998      2.171510
  H       2.902724     -0.329795      0.448267
  C       0.191079     -0.984010      2.473157
  H      -0.010353      0.056071      2.716130
  H      -0.761288     -1.501583      2.408685
  H       0.747587     -1.422460      3.300685
  Pd     -1.207784     -2.849616     -0.761299
  Br     -2.384251     -3.343645      1.549024
  N      -2.218352     -4.825983     -1.184295
  C      -0.246385     -3.306066     -2.461113
  C      -0.803688     -3.147725     -3.722514
  H      -1.706187     -2.564992     -3.868545
  C      -0.219315     -3.741354     -4.833134
  H      -0.667730     -3.603976     -5.807863
  C       0.923121     -4.508224     -4.695865
  H       1.376436     -4.969880     -5.561345
  C       1.474180     -4.690552     -3.439478
  H       2.357287     -5.301608     -3.315085
  C       0.889847     -4.098215     -2.330699
  H       1.336630     -4.271689     -1.355799
  C      -1.392263     -5.954198     -1.376036
  C      -1.439035     -6.689069     -2.555819
  H      -2.134368     -6.408405     -3.335387
  C      -0.586092     -7.762261     -2.738567
  H      -0.626376     -8.323184     -3.661061
  C       0.311388     -8.119216     -1.746965
  H       0.975288     -8.958323     -1.892818
  C       0.354259     -7.395652     -0.565576
  H       1.050587     -7.669871      0.213646
  C      -0.490644     -6.319677     -0.378181
  H      -0.455066     -5.749138      0.543482
  H      -2.968238     -4.776779     -1.872594
  H      -2.601561     -4.786518     -0.228866
  H       0.268864      1.625522      1.026326
  H      -1.101660      3.486073      1.790233
  H      -3.561871      3.422517      1.445728
  H      -4.578405      1.450272      0.396509
  H      -4.765181     -0.793554      1.302139
  H      -2.547829     -0.848876     -2.355444
  H      -5.827818     -3.543428     -1.781295
75
Coordinates from ORCA-job PR-103-p Relaxed Surface Scan Step 6 E -102.614412155450
  C      -2.739813      0.407400      0.090841
  C      -1.344353      0.472018      0.230386
  C      -0.798099      1.592130      0.862215
  C      -1.574799      2.644837      1.301535
  C      -2.946590      2.600966      1.118307
  C      -3.510775      1.487908      0.531831
  C      -3.512137     -0.734638     -0.440686
  C      -3.284154     -1.294979     -1.701437
  C      -4.122098     -2.300381     -2.180873
  C      -5.172524     -2.769317     -1.408132
  C      -5.401517     -2.219782     -0.156816
  C      -4.585228     -1.210241      0.317171
  H      -3.976805     -2.690274     -3.180824
  H      -6.214558     -2.582140      0.455359
  P      -0.158965     -0.822576     -0.324406
  C       0.782397      0.104006     -1.712951
  C       0.998684     -1.118485      1.182987
  C      -0.215917      0.253279     -2.863966
  H       0.261104      0.762224     -3.700639
  H      -0.540312     -0.724184     -3.211063
  H      -1.075749      0.848579     -2.556749
  C       1.293543      1.506783     -1.382168
  H       1.996503      1.517990     -0.557796
  H       1.816256      1.886597     -2.260176
  H       0.474256      2.188404     -1.168940
  C       1.950615     -0.758504     -2.193333
  H       1.626851     -1.780357     -2.375683
  H       2.338013     -0.358057     -3.129488
  H       2.767772     -0.773476     -1.478175
  C       1.452397     -2.576770      1.026272
  H       0.584383     -3.244284      0.918141
  H       2.095734     -2.682859      0.152895
  H       2.010694     -2.896142      1.905650
  C       2.255452     -0.256738      1.327014
  H       2.026621      0.784659      1.534232
  H       2.820472     -0.632873      2.180482
  H       2.901696     -0.318096      0.457324
  C       0.184047     -0.979100      2.472525
  H      -0.021219      0.060439      2.714691
  H      -0.766680     -1.499247      2.403541
  H       0.738061     -1.416284      3.302375
  Pd     -1.202100     -2.844989     -0.761834
  Br     -2.382789     -3.362333      1.550071
  N      -2.209289     -4.820470     -1.172216
  C      -0.239213     -3.305969     -2.459636
  C      -0.796811     -3.150362     -3.721108
  H      -1.698419     -2.566625     -3.868505
  C      -0.213707     -3.748632     -4.829890
  H      -0.662259     -3.613895     -5.804897
  C       0.927585     -4.516808     -4.690403
  H       1.379713     -4.982275     -5.554448
  C       1.479124     -4.695541     -3.433735
  H       2.361442     -5.307374     -3.307713
  C       0.896080     -4.098796     -2.326613
  H       1.343071     -4.269489     -1.351341
  C      -1.394917     -5.953471     -1.374918
  C      -1.464808     -6.689945     -2.552848
  H      -2.170635     -6.405613     -3.321612
  C      -0.621880     -7.768778     -2.747558
  H      -0.680371     -8.330615     -3.668555
  C       0.288863     -8.130407     -1.769778
  H       0.945026     -8.973908     -1.924984
  C       0.354986     -7.405583     -0.590272
  H       1.061518     -7.683537      0.178400
  C      -0.479783     -6.323914     -0.391073
  H      -0.425678     -5.752847      0.529355
  H      -2.978683     -4.772666     -1.838612
  H      -2.561246     -4.760651     -0.203600
  H       0.265248      1.636370      1.021420
  H      -1.111386      3.493368      1.783222
  H      -3.571596      3.420378      1.441167
  H      -4.582089      1.442861      0.395767
  H      -4.758104     -0.804349      1.303976
  H      -2.546628     -0.846747     -2.357528
  H      -5.816725     -3.553129     -1.781929
75
Coordinates from ORCA-job PR-103-p Relaxed Surface Scan Step 7 E -102.613658231160
  C      -2.739250      0.406062      0.090663
  C      -1.343945      0.475622      0.228574
  C      -0.800851      1.597483      0.859994
  C      -1.580837      2.647555      1.299824
  C      -2.952680      2.598828      1.118129
  C      -3.513679      1.483707      0.532472
  C      -3.507921     -0.738538     -0.440802
  C      -3.280908     -1.294880     -1.703622
  C      -4.117139     -2.301262     -2.184063
  C      -5.164645     -2.775149     -1.410311
  C      -5.392376     -2.229891     -0.156871
  C      -4.577913     -1.219325      0.318166
  H      -3.972722     -2.688354     -3.185201
  H      -6.203098     -2.596247      0.456001
  P      -0.156347     -0.817115     -0.325492
  C       0.786841      0.108287     -1.712802
  C       0.996880     -1.113273      1.184505
  C      -0.209535      0.254128     -2.865933
  H       0.268758      0.760548     -3.703390
  H      -0.533487     -0.724455     -3.210417
  H      -1.069908      0.850234     -2.561784
  C       1.296137      1.511993     -1.383335
  H       1.996865      1.525080     -0.557065
  H       1.820938      1.890555     -2.260630
  H       0.475792      2.193416     -1.173612
  C       1.956717     -0.754474     -2.188647
  H       1.633514     -1.776551     -2.371007
  H       2.347102     -0.354944     -3.123937
  H       2.771448     -0.768565     -1.470674
  C       1.453825     -2.570488      1.027444
  H       0.587211     -3.239347      0.916583
  H       2.099482     -2.674743      0.155574
  H       2.010431     -2.889650      1.907960
  C       2.251128     -0.249050      1.334561
  H       2.019170      0.791626      1.541848
  H       2.813679     -0.624817      2.189807
  H       2.900775     -0.308169      0.467210
  C       0.175534     -0.977839      2.470194
  H      -0.032496      0.060952      2.713289
  H      -0.774212     -1.499174      2.394640
  H       0.725612     -1.416083      3.302076
  Pd     -1.196895     -2.839894     -0.764451
  Br     -2.381148     -3.382529      1.547859
  N      -2.201009     -4.813816     -1.162440
  C      -0.233365     -3.304976     -2.460798
  C      -0.792622     -3.153080     -3.721870
  H      -1.693872     -2.569002     -3.870014
  C      -0.211459     -3.756046     -4.829111
  H      -0.661219     -3.624726     -5.804004
  C       0.929374     -4.524653     -4.688179
  H       1.379767     -4.994009     -5.551016
  C       1.482780     -4.698830     -3.431716
  H       2.364887     -5.310728     -3.304666
  C       0.901729     -4.097572     -2.325963
  H       1.350113     -4.264608     -1.350706
  C      -1.396732     -5.950968     -1.372167
  C      -1.486915     -6.691289     -2.546634
  H      -2.201967     -6.405310     -3.306258
  C      -0.652830     -7.775273     -2.749678
  H      -0.727423     -8.339770     -3.667925
  C       0.269798     -8.138782     -1.783747
  H       0.919214     -8.986272     -1.945494
  C       0.356497     -7.410416     -0.607806
  H       1.072277     -7.689828      0.151760
  C      -0.469411     -6.323577     -0.400358
  H      -0.398737     -5.750276      0.517536
  H      -2.986010     -4.768043     -1.810411
  H      -2.525416     -4.732769     -0.183047
  H       0.262395      1.645069      1.018827
  H      -1.119959      3.497702      1.781082
  H      -3.580179      3.416048      1.441695
  H      -4.585001      1.434699      0.397851
  H      -4.750031     -0.816261      1.306273
  H      -2.546060     -0.842687     -2.360117
  H      -5.807667     -3.559529     -1.784979
75
Coordinates from ORCA-job PR-103-p Relaxed Surface Scan Step 8 E -102.612704045190
  C      -2.738556      0.403784      0.091050
  C      -1.343410      0.478547      0.226827
  C      -0.803353      1.602691      0.856723
  C      -1.586634      2.650080      1.297113
  C      -2.958634      2.595954      1.118008
  C      -3.516485      1.478459      0.533822
  C      -3.503474     -0.743256     -0.440701
  C      -3.277804     -1.294534     -1.706109
  C      -4.112551     -2.301371     -2.188225
  C      -5.156887     -2.780856     -1.413569
  C      -5.382893     -2.241032     -0.157437
  C      -4.570131     -1.229831      0.319269
  H      -3.969430     -2.684746     -3.190945
  H      -6.191070     -2.611957      0.456053
  P      -0.153625     -0.812278     -0.326572
  C       0.791704      0.112487     -1.711843
  C       0.994877     -1.108630      1.186278
  C      -0.202881      0.256790     -2.866719
  H       0.276950      0.760908     -3.704660
  H      -0.527474     -0.722326     -3.209317
  H      -1.063117      0.854289     -2.564912
  C       1.300125      1.516337     -1.381857
  H       1.998999      1.529546     -0.553948
  H       1.826837      1.894721     -2.258070
  H       0.479217      2.197692     -1.174086
  C       1.962521     -0.750894     -2.184221
  H       1.639033     -1.772714     -2.367892
  H       2.356231     -0.351434     -3.118128
  H       2.774780     -0.765642     -1.463439
  C       1.455112     -2.564819      1.029491
  H       0.589928     -3.235089      0.916308
  H       2.102999     -2.667596      0.159120
  H       2.010150     -2.883344      1.911223
  C       2.246554     -0.241901      1.342262
  H       2.011459      0.798233      1.548675
  H       2.806223     -0.616699      2.199802
  H       2.899942     -0.299452      0.477575
  C       0.166638     -0.976490      2.467887
  H      -0.042320      0.061797      2.712418
  H      -0.783034     -1.497146      2.385138
  H       0.711678     -1.417249      3.301722
  Pd     -1.191412     -2.835181     -0.768246
  Br     -2.379110     -3.405995      1.543945
  N      -2.192768     -4.806718     -1.155699
  C      -0.227606     -3.303426     -2.463659
  C      -0.788884     -3.153918     -3.724001
  H      -1.689216     -2.568442     -3.872160
  C      -0.210706     -3.761439     -4.830290
  H      -0.661937     -3.632478     -5.804796
  C       0.928976     -4.531669     -4.688845
  H       1.376767     -5.004894     -5.550916
  C       1.484726     -4.702409     -3.432977
  H       2.366163     -5.315190     -3.305649
  C       0.906786     -4.096666     -2.328012
  H       1.356964     -4.260890     -1.353141
  C      -1.398126     -5.947973     -1.369806
  C      -1.509112     -6.695544     -2.538240
  H      -2.234074     -6.410481     -3.288825
  C      -0.683646     -7.784848     -2.746992
  H      -0.774819     -8.354617     -3.660525
  C       0.251686     -8.147080     -1.792808
  H       0.894545     -8.998696     -1.959078
  C       0.359508     -7.411808     -0.622968
  H       1.085164     -7.690205      0.127584
  C      -0.457711     -6.319569     -0.409948
  H      -0.370035     -5.741506      0.503506
  H      -2.991691     -4.763411     -1.786492
  H      -2.491190     -4.703299     -0.166885
  H       0.259943      1.654215      1.014016
  H      -1.128210      3.502280      1.777068
  H      -3.588642      3.410947      1.442305
  H      -4.587842      1.425248      0.401094
  H      -4.741205     -0.830398      1.309039
  H      -2.545771     -0.837892     -2.362800
  H      -5.798917     -3.565383     -1.789666
75
Coordinates from ORCA-job PR-103-p Relaxed Surface Scan Step 9 E -102.611527545780
  C      -2.737544      0.401653      0.091685
  C      -1.342564      0.481164      0.225535
  C      -0.805452      1.606452      0.855856
  C      -1.591846      2.650795      1.297958
  C      -2.963919      2.591973      1.120831
  C      -3.518774      1.473000      0.536573
  C      -3.499018     -0.747249     -0.441173
  C      -3.275081     -1.292581     -1.709606
  C      -4.108690     -2.299292     -2.193992
  C      -5.149828     -2.784671     -1.418638
  C      -5.373654     -2.251241     -0.159363
  C      -4.562237     -1.239994      0.319642
  H      -3.967137     -2.678273     -3.198570
  H      -6.179208     -2.627049      0.454611
  P      -0.150945     -0.807618     -0.328346
  C       0.796665      0.116763     -1.711448
  C       0.992684     -1.105961      1.187012
  C      -0.195940      0.259336     -2.868240
  H       0.285528      0.761085     -3.706642
  H      -0.521036     -0.720361     -3.208888
  H      -1.056138      0.858180     -2.568983
  C       1.304098      1.520876     -1.381311
  H       2.000873      1.534566     -0.551600
  H       1.832982      1.898718     -2.256439
  H       0.482580      2.202263     -1.176118
  C       1.968607     -0.747088     -2.180131
  H       1.644992     -1.768663     -2.365232
  H       2.365816     -0.347618     -3.112537
  H       2.778216     -0.762450     -1.456352
  C       1.455880     -2.561005      1.028636
  H       0.591962     -3.232244      0.911994
  H       2.106154     -2.661343      0.159778
  H       2.009018     -2.880261      1.911283
  C       2.241919     -0.237211      1.350234
  H       2.003910      0.802136      1.557152
  H       2.798501     -0.612331      2.209623
  H       2.899143     -0.292189      0.488238
  C       0.157281     -0.978849      2.464485
  H      -0.053056      0.058585      2.711535
  H      -0.792061     -1.499152      2.373793
  H       0.697313     -1.422811      3.299841
  Pd     -1.186747     -2.829966     -0.773547
  Br     -2.378066     -3.429922      1.537342
  N      -2.185650     -4.798486     -1.150854
  C      -0.222972     -3.301425     -2.468223
  C      -0.786931     -3.154995     -3.727630
  H      -1.686627     -2.568507     -3.875609
  C      -0.212213     -3.767468     -4.832968
  H      -0.665485     -3.641448     -5.806890
  C       0.926511     -4.539072     -4.691224
  H       1.371279     -5.016552     -5.552509
  C       1.485322     -4.705634     -3.436185
  H       2.366275     -5.319064     -3.308744
  C       0.911005     -4.094955     -2.332020
  H       1.363583     -4.255771     -1.357721
  C      -1.399112     -5.943208     -1.366381
  C      -1.529000     -6.700407     -2.527041
  H      -2.263647     -6.418653     -3.269507
  C      -0.710673     -7.794349     -2.738659
  H      -0.817002     -8.371141     -3.646184
  C       0.237116     -8.152297     -1.795152
  H       0.874592     -9.007523     -1.963702
  C       0.364170     -7.407816     -0.633123
  H       1.099496     -7.682827      0.109266
  C      -0.445808     -6.310818     -0.417376
  H      -0.342339     -5.726204      0.490269
  H      -2.996320     -4.758519     -1.766639
  H      -2.460626     -4.671904     -0.154009
  H       0.257761      1.661164      1.012489
  H      -1.135803      3.504163      1.778091
  H      -3.596304      3.404426      1.446849
  H      -4.590146      1.415954      0.405598
  H      -4.731919     -0.844956      1.311417
  H      -2.545800     -0.831263     -2.366217
  H      -5.791121     -3.568902     -1.796644
75
Coordinates from ORCA-job PR-103-p Relaxed Surface Scan Step 10 E -102.610106513470
  C      -2.736337      0.399120      0.092387
  C      -1.341560      0.483110      0.224514
  C      -0.807204      1.609798      0.854610
  C      -1.596550      2.651370      1.298012
  C      -2.968689      2.587974      1.122899
  C      -3.520706      1.467406      0.538958
  C      -3.494546     -0.751480     -0.441651
  C      -3.272864     -1.290491     -1.713315
  C      -4.105766     -2.296657     -2.200070
  C      -5.143608     -2.787909     -1.423931
  C      -5.364725     -2.261248     -0.161300
  C      -4.554253     -1.250322      0.320095
  H      -3.966255     -2.670903     -3.206674
  H      -6.167588     -2.641893      0.453225
  P      -0.148299     -0.803767     -0.329845
  C       0.801616      0.120759     -1.710284
  C       0.990596     -1.104301      1.187907
  C      -0.189151      0.262583     -2.868759
  H       0.293966      0.762295     -3.707403
  H      -0.515138     -0.717406     -3.207990
  H      -1.049067      0.862863     -2.571560
  C       1.308314      1.524762     -1.378766
  H       2.003259      1.537964     -0.547449
  H       1.839099      1.902948     -2.252581
  H       0.486323      2.206029     -1.175060
  C       1.974438     -0.743467     -2.176046
  H       1.650430     -1.764550     -2.363502
  H       2.375223     -0.343258     -3.106588
  H       2.781394     -0.760284     -1.449314
  C       1.457036     -2.558103      1.027987
  H       0.594495     -3.230462      0.908018
  H       2.109665     -2.655945      0.160635
  H       2.008391     -2.877919      1.911535
  C       2.237168     -0.233261      1.358209
  H       1.996014      0.805307      1.565307
  H       2.790648     -0.608347      2.219596
  H       2.898276     -0.285735      0.498983
  C       0.148318     -0.982401      2.461370
  H      -0.064546      0.054067      2.710376
  H      -0.800001     -1.503581      2.363422
  H       0.684186     -1.428406      3.298279
  Pd     -1.182118     -2.825282     -0.779653
  Br     -2.377580     -3.456208      1.528191
  N      -2.178872     -4.789988     -1.148693
  C      -0.218485     -3.299130     -2.473977
  C      -0.785629     -3.155017     -3.732129
  H      -1.684609     -2.567209     -3.879243
  C      -0.214957     -3.771917     -4.837070
  H      -0.670677     -3.648234     -5.810132
  C       0.922773     -4.545111     -4.695932
  H       1.364055     -5.026463     -5.556854
  C       1.485259     -4.708116     -3.442102
  H       2.365769     -5.322287     -3.315271
  C       0.915163     -4.092997     -2.338186
  H       1.370667     -4.250876     -1.364832
  C      -1.399737     -5.937985     -1.363355
  C      -1.547939     -6.707032     -2.514441
  H      -2.292184     -6.430238     -3.249286
  C      -0.736443     -7.805771     -2.726487
  H      -0.857614     -8.391282     -3.626603
  C       0.223632     -8.157453     -1.793034
  H       0.855852     -9.016544     -1.961872
  C       0.369458     -7.401506     -0.640684
  H       1.114404     -7.671477      0.093980
  C      -0.433567     -6.299560     -0.424650
  H      -0.314536     -5.706696      0.475774
  H      -2.999360     -4.753487     -1.751519
  H      -2.432642     -4.639620     -0.144832
  H       0.255987      1.667795      1.010188
  H      -1.142757      3.506121      1.777805
  H      -3.603307      3.398152      1.450218
  H      -4.592069      1.406699      0.409582
  H      -4.722152     -0.859921      1.314006
  H      -2.546468     -0.824441     -2.369914
  H      -5.784523     -3.571482     -1.803982
75
Coordinates from ORCA-job PR-103-p Relaxed Surface Scan Step 11 E -102.608424574130
  C      -2.735221      0.397158      0.093150
  C      -1.340549      0.484674      0.223458
  C      -0.808249      1.612365      0.853494
  C      -1.599831      2.651539      1.298559
  C      -2.972066      2.584438      1.125646
  C      -3.521971      1.462762      0.541822
  C      -3.491140     -0.754515     -0.442074
  C      -3.272326     -1.287348     -1.716993
  C      -4.105370     -2.292421     -2.205842
  C      -5.140035     -2.788845     -1.428715
  C      -5.357604     -2.268986     -0.162638
  C      -4.547271     -1.258952      0.320965
  H      -3.968419     -2.662058     -3.214479
  H      -6.157809     -2.654007      0.452639
  P      -0.146168     -0.800591     -0.332141
  C       0.807225      0.124785     -1.708888
  C       0.987526     -1.106036      1.187681
  C      -0.179828      0.265190     -2.870686
  H       0.305946      0.763534     -3.708601
  H      -0.505094     -0.715251     -3.209347
  H      -1.040536      0.866051     -2.576954
  C       1.311626      1.529124     -1.375661
  H       2.003407      1.542693     -0.541685
  H       1.845403      1.907730     -2.247464
  H       0.488334      2.209730     -1.175036
  C       1.982568     -0.738683     -2.169588
  H       1.659636     -1.759681     -2.359421
  H       2.387916     -0.337726     -3.097822
  H       2.785777     -0.755762     -1.438646
  C       1.456170     -2.558582      1.023187
  H       0.594543     -3.231081      0.897925
  H       2.111465     -2.652575      0.157433
  H       2.005007     -2.881424      1.907171
  C       2.232146     -0.234076      1.366674
  H       1.988813      0.803397      1.576473
  H       2.782537     -0.611602      2.228962
  H       2.896805     -0.282593      0.509874
  C       0.138295     -0.991933      2.457280
  H      -0.077952      0.042971      2.709848
  H      -0.808523     -1.514731      2.351427
  H       0.670495     -1.440811      3.294957
  Pd     -1.178965     -2.820734     -0.787159
  Br     -2.378733     -3.480646      1.515103
  N      -2.173113     -4.780680     -1.147645
  C      -0.216621     -3.296395     -2.481873
  C      -0.788202     -3.156406     -3.738455
  H      -1.687024     -2.568103     -3.884545
  C      -0.222240     -3.778436     -4.842913
  H      -0.681474     -3.658419     -5.814771
  C       0.914946     -4.552594     -4.702664
  H       1.352043     -5.038638     -5.563090
  C       1.482347     -4.710480     -3.450427
  H       2.362758     -5.324943     -3.324383
  C       0.917212     -4.090065     -2.346913
  H       1.376692     -4.243848     -1.374771
  C      -1.398718     -5.930413     -1.359265
  C      -1.561900     -6.712916     -2.499729
  H      -2.315287     -6.443539     -3.228123
  C      -0.754592     -7.814915     -2.709745
  H      -0.888052     -8.410310     -3.601677
  C       0.217201     -8.157332     -1.784951
  H       0.846223     -9.019114     -1.952173
  C       0.378579     -7.388399     -0.643355
  H       1.132776     -7.650893      0.084612
  C      -0.420196     -6.283081     -0.429412
  H      -0.287714     -5.680657      0.462817
  H      -3.000832     -4.748150     -1.740791
  H      -2.409066     -4.606207     -0.137832
  H       0.254926      1.673052      1.007796
  H      -1.147700      3.507279      1.778147
  H      -3.608378      3.392645      1.454525
  H      -4.593360      1.399097      0.414154
  H      -4.712676     -0.873326      1.317135
  H      -2.548560     -0.817291     -2.373654
  H      -5.781185     -3.571322     -1.810671
75
Coordinates from ORCA-job PR-103-p Relaxed Surface Scan Step 12 E -102.606486420930
  C      -2.733096      0.393155      0.095391
  C      -1.338720      0.484685      0.224519
  C      -0.809267      1.611811      0.857881
  C      -1.603768      2.647368      1.306195
  C      -2.975923      2.576645      1.133983
  C      -3.522961      1.454858      0.547622
  C      -3.485899     -0.759059     -0.443237
  C      -3.269448     -1.283207     -1.722240
  C      -4.102505     -2.285988     -2.215730
  C      -5.134491     -2.789022     -1.439230
  C      -5.349151     -2.278419     -0.168846
  C      -4.539059     -1.270336      0.319374
  H      -3.967703     -2.648874     -3.227079
  H      -6.147107     -2.668850      0.445940
  P      -0.143025     -0.797998     -0.333679
  C       0.810669      0.128090     -1.708783
  C       0.987418     -1.106076      1.187387
  C      -0.176170      0.266341     -2.871105
  H       0.309763      0.762498     -3.710189
  H      -0.502094     -0.714888     -3.207375
  H      -1.036693      0.868079     -2.578632
  C       1.313826      1.532908     -1.375626
  H       2.004489      1.547062     -0.540689
  H       1.848554      1.911427     -2.246871
  H       0.489909      2.213162     -1.176498
  C       1.986798     -0.735155     -2.167912
  H       1.663826     -1.755875     -2.359679
  H       2.394342     -0.333283     -3.094775
  H       2.788235     -0.753200     -1.435051
  C       1.461883     -2.556311      1.019663
  H       0.602817     -3.231359      0.891339
  H       2.118936     -2.645876      0.154787
  H       2.010348     -2.879438      1.903772
  C       2.227788     -0.229914      1.373965
  H       1.979454      0.806029      1.585439
  H       2.776173     -0.607575      2.237447
  H       2.895965     -0.273576      0.519614
  C       0.131943     -0.999986      2.453472
  H      -0.089346      0.033268      2.708508
  H      -0.812436     -1.526119      2.340832
  H       0.661780     -1.449848      3.292067
  Pd     -1.173750     -2.816874     -0.795188
  Br     -2.377687     -3.510965      1.500558
  N      -2.168469     -4.769325     -1.153902
  C      -0.211201     -3.293167     -2.490229
  C      -0.786357     -3.154531     -3.745231
  H      -1.685431     -2.566084     -3.889451
  C      -0.223513     -3.778316     -4.850250
  H      -0.685557     -3.659990     -5.820969
  C       0.914183     -4.552118     -4.711921
  H       1.348563     -5.039922     -5.572729
  C       1.486016     -4.706874     -3.461336
  H       2.367419     -5.320242     -3.337003
  C       0.924211     -4.084646     -2.357113
  H       1.387675     -4.235293     -1.386479
  C      -1.401801     -5.923513     -1.356816
  C      -1.581774     -6.724592     -2.482324
  H      -2.343562     -6.464264     -3.205388
  C      -0.781640     -7.833089     -2.684383
  H      -0.928664     -8.442184     -3.564943
  C       0.200394     -8.164747     -1.766424
  H       0.823792     -9.031801     -1.927438
  C       0.378847     -7.377932     -0.639663
  H       1.140968     -7.631742      0.083181
  C      -0.412302     -6.265720     -0.434053
  H      -0.265223     -5.650104      0.446985
  H      -3.002441     -4.740069     -1.738374
  H      -2.386505     -4.566629     -0.138953
  H       0.253707      1.674669      1.012827
  H      -1.153978      3.503026      1.788113
  H      -3.614429      3.381918      1.465768
  H      -4.594279      1.387957      0.421032
  H      -4.702609     -0.891148      1.318306
  H      -2.547969     -0.807783     -2.377785
  H      -5.775893     -3.569373     -1.825146
75
Coordinates from ORCA-job PR-103-p Relaxed Surface Scan Step 13 E -102.604292188830
  C      -2.730771      0.387893      0.097139
  C      -1.336774      0.485561      0.224393
  C      -0.811286      1.614743      0.857281
  C      -1.610008      2.646312      1.307307
  C      -2.982172      2.569023      1.137959
  C      -3.525122      1.445103      0.551821
  C      -3.479266     -0.766150     -0.444004
  C      -3.268109     -1.279390     -1.728461
  C      -4.101730     -2.279646     -2.226133
  C      -5.128511     -2.791535     -1.448418
  C      -5.337022     -2.292821     -0.172263
  C      -4.526851     -1.286752      0.320093
  H      -3.971426     -2.633955     -3.241038
  H      -6.130679     -2.690451      0.443486
  P      -0.139160     -0.794624     -0.334713
  C       0.816853      0.132449     -1.706502
  C       0.986244     -1.105495      1.188585
  C      -0.168156      0.271461     -2.870265
  H       0.319869      0.765103     -3.709586
  H      -0.496379     -0.709550     -3.205228
  H      -1.027488      0.875704     -2.579464
  C       1.319547      1.536706     -1.370532
  H       2.008734      1.549203     -0.534277
  H       1.855774      1.916644     -2.240218
  H       0.495297      2.216617     -1.171571
  C       1.993647     -0.730868     -2.163783
  H       1.669864     -1.750490     -2.360187
  H       2.405478     -0.326623     -3.087707
  H       2.791966     -0.752219     -1.427595
  C       1.464062     -2.554249      1.018657
  H       0.606312     -3.230040      0.886192
  H       2.123854     -2.641019      0.155634
  H       2.010163     -2.878582      1.903760
  C       2.223554     -0.226840      1.382966
  H       1.971706      0.808105      1.594954
  H       2.768707     -0.604711      2.248375
  H       2.895812     -0.267372      0.531606
  C       0.123502     -1.005616      2.450261
  H      -0.101485      0.026410      2.707068
  H      -0.819058     -1.533794      2.330219
  H       0.649514     -1.456905      3.290437
  Pd     -1.168431     -2.811341     -0.803058
  Br     -2.374043     -3.542653      1.486445
  N      -2.163981     -4.755659     -1.159351
  C      -0.205471     -3.290750     -2.497748
  C      -0.785712     -3.155706     -3.750769
  H      -1.684205     -2.565929     -3.893332
  C      -0.228790     -3.785208     -4.855487
  H      -0.694757     -3.670198     -5.824715
  C       0.907744     -4.561008     -4.718561
  H       1.336921     -5.054091     -5.578972
  C       1.485162     -4.710876     -3.470015
  H       2.366096     -5.325152     -3.346922
  C       0.929697     -4.082569     -2.365958
  H       1.397822     -4.229181     -1.397034
  C      -1.404360     -5.913288     -1.356026
  C      -1.604504     -6.733507     -2.464851
  H      -2.378117     -6.483413     -3.179107
  C      -0.810775     -7.847279     -2.661709
  H      -0.974087     -8.470547     -3.529464
  C       0.185816     -8.166612     -1.755045
  H       0.804036     -9.038117     -1.911994
  C       0.385035     -7.361324     -0.644974
  H       1.158694     -7.604962      0.069132
  C      -0.399272     -6.243432     -0.445052
  H      -0.234220     -5.613875      0.423019
  H      -3.003965     -4.729806     -1.735461
  H      -2.364205     -4.527167     -0.138559
  H       0.251608      1.682526      1.010515
  H      -1.163451      3.503990      1.788626
  H      -3.623827      3.370990      1.471640
  H      -4.596343      1.372982      0.427358
  H      -4.686347     -0.915762      1.322740
  H      -2.551221     -0.797334     -2.384279
  H      -5.770759     -3.569388     -1.838033
75
Coordinates from ORCA-job PR-103-p Relaxed Surface Scan Step 14 E -102.601846688080
  C      -2.729016      0.381427      0.098985
  C      -1.335466      0.484774      0.225261
  C      -0.814084      1.615087      0.859454
  C      -1.616896      2.642451      1.311842
  C      -2.988914      2.559312      1.144097
  C      -3.527664      1.434069      0.556564
  C      -3.473566     -0.773674     -0.445814
  C      -3.266148     -1.276256     -1.735271
  C      -4.100060     -2.273658     -2.237991
  C      -5.122807     -2.793928     -1.460471
  C      -5.326648     -2.306901     -0.178997
  C      -4.516696     -1.303068      0.318422
  H      -3.972981     -2.619563     -3.256172
  H      -6.116924     -2.711396      0.436628
  P      -0.134871     -0.791813     -0.335167
  C       0.821711      0.137070     -1.704463
  C       0.987356     -1.103995      1.189460
  C      -0.161774      0.274661     -2.869697
  H       0.327434      0.766575     -3.709325
  H      -0.490272     -0.706833     -3.203249
  H      -1.021095      0.879817     -2.580795
  C       1.321831      1.541789     -1.366781
  H       2.009558      1.554517     -0.529286
  H       1.858935      1.923196     -2.235273
  H       0.496227      2.220295     -1.168664
  C       2.000358     -0.724843     -2.159590
  H       1.677437     -1.744201     -2.359048
  H       2.415074     -0.318715     -3.081388
  H       2.796179     -0.747253     -1.420697
  C       1.470748     -2.550474      1.016365
  H       0.615459     -3.228654      0.881423
  H       2.131774     -2.633072      0.153880
  H       2.016856     -2.875106      1.901323
  C       2.220639     -0.221352      1.390504
  H       1.964158      0.812116      1.603994
  H       2.764122     -0.599294      2.256909
  H       2.895990     -0.257352      0.541335
  C       0.119072     -1.011962      2.447972
  H      -0.110883      0.018388      2.707113
  H      -0.820975     -1.543631      2.322162
  H       0.643405     -1.463936      3.288764
  Pd     -1.161886     -2.807280     -0.809401
  Br     -2.367767     -3.568084      1.467631
  N      -2.158858     -4.741096     -1.166065
  C      -0.198763     -3.288108     -2.504602
  C      -0.783175     -3.156251     -3.756066
  H      -1.681576     -2.565929     -3.897213
  C      -0.231007     -3.790273     -4.860510
  H      -0.700377     -3.678249     -5.828443
  C       0.904857     -4.567306     -4.724814
  H       1.329794     -5.064678     -5.584869
  C       1.487242     -4.712563     -3.478089
  H       2.368201     -5.327031     -3.356112
  C       0.936919     -4.079346     -2.374228
  H       1.409517     -4.221882     -1.406914
  C      -1.408163     -5.903259     -1.355372
  C      -1.630056     -6.742827     -2.446227
  H      -2.414792     -6.501822     -3.151597
  C      -0.845275     -7.863831     -2.636242
  H      -1.026035     -8.501648     -3.489940
  C       0.164810     -8.172426     -1.740772
  H       0.776011     -9.049805     -1.892517
  C       0.386271     -7.348531     -0.648770
  H       1.170584     -7.583446      0.056668
  C      -0.388785     -6.223145     -0.455853
  H      -0.204867     -5.579701      0.398323
  H      -3.005093     -4.716964     -1.733176
  H      -2.339053     -4.483794     -0.139587
  H       0.248626      1.687055      1.011960
  H      -1.173623      3.501323      1.794047
  H      -3.633711      3.357784      1.480061
  H      -4.598697      1.357317      0.433322
  H      -4.673176     -0.940201      1.324475
  H      -2.552304     -0.787759     -2.389682
  H      -5.765578     -3.569165     -1.854500
75
Coordinates from ORCA-job PR-103-p Relaxed Surface Scan Step 15 E -102.599147350140
  C      -2.727383      0.375033      0.100032
  C      -1.334295      0.482382      0.226985
  C      -0.816487      1.612892      0.863683
  C      -1.622729      2.636581      1.318294
  C      -2.994489      2.549228      1.150615
  C      -3.529631      1.423693      0.560310
  C      -3.468721     -0.780069     -0.449579
  C      -3.264187     -1.272508     -1.743498
  C      -4.098509     -2.266797     -2.251627
  C      -5.118285     -2.794563     -1.475222
  C      -5.318711     -2.318228     -0.189157
  C      -4.508795     -1.317006      0.313675
  H      -3.973949     -2.604812     -3.272740
  H      -6.106604     -2.728657      0.425592
  P      -0.131211     -0.790849     -0.335272
  C       0.826100      0.141296     -1.701105
  C       0.988328     -1.105277      1.190341
  C      -0.155797      0.279489     -2.867619
  H       0.334631      0.771218     -3.706627
  H      -0.484472     -0.701875     -3.201628
  H      -1.015162      0.884982     -2.579592
  C       1.323927      1.545939     -1.359792
  H       2.010454      1.557579     -0.521262
  H       1.861681      1.930032     -2.226681
  H       0.497118      2.222838     -1.161221
  C       2.006475     -0.718609     -2.155543
  H       1.684290     -1.737226     -2.360050
  H       2.424216     -0.308947     -3.074407
  H       2.799735     -0.743597     -1.413969
  C       1.477044     -2.549439      1.013297
  H       0.624137     -3.229824      0.875491
  H       2.139269     -2.627531      0.151299
  H       2.023158     -2.874936      1.897907
  C       2.217926     -0.219119      1.397930
  H       1.957257      0.812813      1.613611
  H       2.760011     -0.597783      2.264874
  H       2.895982     -0.250283      0.550687
  C       0.115502     -1.021195      2.446328
  H      -0.118487      0.007496      2.708393
  H      -0.822436     -1.555640      2.315487
  H       0.638621     -1.474495      3.287101
  Pd     -1.155216     -2.805386     -0.816988
  Br     -2.362640     -3.590470      1.442696
  N      -2.152238     -4.727604     -1.176046
  C      -0.193721     -3.283624     -2.515288
  C      -0.782908     -3.152983     -3.764724
  H      -1.681287     -2.561937     -3.903099
  C      -0.235856     -3.789100     -4.870441
  H      -0.709172     -3.678198     -5.836585
  C       0.899545     -4.567414     -4.738126
  H       1.319826     -5.067396     -5.598964
  C       1.487566     -4.710227     -3.493817
  H       2.368805     -5.324847     -3.374580
  C       0.942897     -4.074219     -2.388730
  H       1.421018     -4.214069     -1.423779
  C      -1.410156     -5.894323     -1.353184
  C      -1.655136     -6.759449     -2.419764
  H      -2.452473     -6.532206     -3.115756
  C      -0.878758     -7.887940     -2.597865
  H      -1.077929     -8.544241     -3.433398
  C       0.146734     -8.180523     -1.714526
  H       0.751384     -9.063945     -1.857228
  C       0.391592     -7.332233     -0.646482
  H       1.187869     -7.554158      0.049791
  C      -0.374686     -6.199017     -0.465825
  H      -0.171054     -5.537816      0.370510
  H      -3.003266     -4.706142     -1.736249
  H      -2.313737     -4.437597     -0.144750
  H       0.245964      1.687932      1.016431
  H      -1.182288      3.495851      1.802364
  H      -3.641884      3.344696      1.488663
  H      -4.600400      1.343607      0.436993
  H      -4.663066     -0.961758      1.322739
  H      -2.552615     -0.778596     -2.396309
  H      -5.761444     -3.567201     -1.873781
75
Coordinates from ORCA-job PR-103-p Relaxed Surface Scan Step 16 E -102.596158074140
  C      -2.726492      0.367794      0.099972
  C      -1.333941      0.477043      0.230532
  C      -0.819509      1.606183      0.872413
  C      -1.628521      2.626812      1.328937
  C      -2.999743      2.537671      1.157908
  C      -3.531580      1.413403      0.562244
  C      -3.465753     -0.785864     -0.455824
  C      -3.261898     -1.270319     -1.752832
  C      -4.096568     -2.261189     -2.266770
  C      -5.116116     -2.793718     -1.493344
  C      -5.315837     -2.325511     -0.204155
  C      -4.505674     -1.327438      0.304532
  H      -3.972303     -2.593222     -3.289875
  H      -6.103618     -2.739582      0.408283
  P      -0.127594     -0.791849     -0.334284
  C       0.828459      0.145829     -1.696964
  C       0.991755     -1.108441      1.190827
  C      -0.152472      0.284376     -2.864250
  H       0.338049      0.778130     -3.702008
  H      -0.479273     -0.697001     -3.200180
  H      -1.013035      0.888065     -2.576097
  C       1.322239      1.550978     -1.351714
  H       2.008593      1.562306     -0.513096
  H       1.858929      1.939080     -2.217471
  H       0.493446      2.224915     -1.151421
  C       2.011387     -0.710065     -2.152354
  H       1.691131     -1.728135     -2.362680
  H       2.430872     -0.295399     -3.068182
  H       2.802772     -0.737431     -1.408876
  C       1.486485     -2.549756      1.007533
  H       0.636142     -3.233043      0.869685
  H       2.146924     -2.622342      0.143635
  H       2.035976     -2.876055      1.889727
  C       2.217784     -0.218754      1.404361
  H       1.953185      0.811281      1.624087
  H       2.759704     -0.599260      2.270587
  H       2.897479     -0.243840      0.558225
  C       0.116874     -1.034282      2.446109
  H      -0.122044     -0.007827      2.712333
  H      -0.818500     -1.572604      2.312083
  H       0.641291     -1.488712      3.285410
  Pd     -1.145957     -2.807309     -0.824170
  Br     -2.355955     -3.605398      1.409045
  N      -2.143105     -4.714863     -1.190293
  C      -0.188058     -3.276378     -2.528918
  C      -0.781421     -3.144713     -3.776453
  H      -1.680808     -2.554327     -3.911018
  C      -0.237487     -3.778294     -4.885081
  H      -0.714318     -3.666341     -5.849394
  C       0.898861     -4.556102     -4.757912
  H       1.316178     -5.054946     -5.620875
  C       1.491737     -4.699429     -3.516005
  H       2.374245     -5.313042     -3.400788
  C       0.950760     -4.065061     -2.408174
  H       1.434298     -4.204055     -1.445767
  C      -1.411805     -5.887972     -1.349862
  C      -1.683460     -6.783882     -2.385027
  H      -2.493737     -6.572348     -3.071168
  C      -0.918352     -7.922561     -2.544511
  H      -1.138851     -8.602017     -3.355947
  C       0.123209     -8.196133     -1.673899
  H       0.719143     -9.087632     -1.802488
  C       0.395187     -7.317960     -0.637044
  H       1.204109     -7.524620      0.049392
  C      -0.359701     -6.174541     -0.474992
  H      -0.133883     -5.490751      0.337629
  H      -2.997916     -4.695752     -1.745001
  H      -2.286766     -4.389303     -0.154030
  H       0.242443      1.682496      1.027699
  H      -1.190637      3.485038      1.817137
  H      -3.649299      3.330736      1.497413
  H      -4.601922      1.331928      0.436259
  H      -4.659619     -0.978180      1.315679
  H      -2.549674     -0.773252     -2.402481
  H      -5.759646     -3.563568     -1.896749
75
Coordinates from ORCA-job PR-103-p Relaxed Surface Scan Step 17 E -102.592781006150
  C      -2.726032      0.366329      0.100636
  C      -1.333491      0.477266      0.229231
  C      -0.819729      1.607124      0.870363
  C      -1.629457      2.626766      1.327806
  C      -3.000808      2.535789      1.158802
  C      -3.531971      1.410709      0.564072
  C      -3.464225     -0.787832     -0.455504
  C      -3.260797     -1.269708     -1.753684
  C      -4.095386     -2.259837     -2.269173
  C      -5.113863     -2.794642     -1.495847
  C      -5.312292     -2.329915     -0.205190
  C      -4.502522     -1.332221      0.305009
  H      -3.971723     -2.589745     -3.293054
  H      -6.099119     -2.746120      0.407011
  P      -0.126550     -0.791115     -0.336059
  C       0.831738      0.147205     -1.696321
  C       0.989433     -1.109085      1.190999
  C      -0.147612      0.286487     -2.864910
  H       0.344275      0.779847     -3.702104
  H      -0.474960     -0.694606     -3.201341
  H      -1.008080      0.890840     -2.577829
  C       1.325776      1.551919     -1.349600
  H       2.010422      1.562369     -0.509538
  H       1.864552      1.939943     -2.214105
  H       0.497026      2.226349     -1.150782
  C       2.015031     -0.709217     -2.149862
  H       1.694719     -1.727182     -2.360917
  H       2.436385     -0.294760     -3.064930
  H       2.805009     -0.736961     -1.404845
  C       1.486058     -2.549711      1.007273
  H       0.636931     -3.233721      0.866043
  H       2.149285     -2.620768      0.145386
  H       2.033128     -2.876575      1.890762
  C       2.214086     -0.218685      1.409059
  H       1.948138      0.810819      1.629494
  H       2.754118     -0.599929      2.276120
  H       2.895942     -0.242044      0.564554
  C       0.110277     -1.037651      2.443517
  H      -0.129845     -0.011680      2.710463
  H      -0.824472     -1.576404      2.305617
  H       0.632235     -1.493070      3.283750
  Pd     -1.144590     -2.806395     -0.827858
  Br     -2.355294     -3.622498      1.386584
  N      -2.141464     -4.712881     -1.187028
  C      -0.187947     -3.274467     -2.533647
  C      -0.782976     -3.143707     -3.780561
  H      -1.683638     -2.554877     -3.913923
  C      -0.239564     -3.776273     -4.889990
  H      -0.718019     -3.665224     -5.853638
  C       0.898355     -4.552050     -4.764475
  H       1.315225     -5.050334     -5.628006
  C       1.493525     -4.693838     -3.523492
  H       2.377527     -5.305606     -3.409662
  C       0.953149     -4.060340     -2.414888
  H       1.439227     -4.197771     -1.453537
  C      -1.411609     -5.884800     -1.347263
  C      -1.694001     -6.790290     -2.372270
  H      -2.510925     -6.583526     -3.052262
  C      -0.932514     -7.931367     -2.529618
  H      -1.161946     -8.617167     -3.333340
  C       0.117166     -8.199646     -1.666994
  H       0.710502     -9.093145     -1.794002
  C       0.400347     -7.313099     -0.640385
  H       1.215588     -7.515414      0.039963
  C      -0.350897     -6.167135     -0.480325
  H      -0.114540     -5.477663      0.324557
  H      -2.997133     -4.696041     -1.741389
  H      -2.283199     -4.375612     -0.135790
  H       0.242270      1.684817      1.024341
  H      -1.191996      3.485669      1.815182
  H      -3.650930      3.328048      1.499073
  H      -4.602345      1.327719      0.439534
  H      -4.655610     -0.985471      1.317088
  H      -2.549187     -0.770603     -2.402613
  H      -5.757393     -3.563899     -1.900489
75
Coordinates from ORCA-job PR-103-p Relaxed Surface Scan Step 18 E -102.591827383940
  C      -2.726750      0.347918      0.102366
  C      -1.334943      0.460519      0.237435
  C      -0.826313      1.586071      0.890096
  C      -1.639900      2.600067      1.353106
  C      -3.010349      2.507833      1.177773
  C      -3.536651      1.386820      0.571190
  C      -3.461247     -0.802495     -0.466357
  C      -3.249780     -1.276063     -1.766225
  C      -4.083134     -2.260865     -2.294038
  C      -5.105705     -2.801357     -1.530181
  C      -5.310603     -2.346504     -0.236972
  C      -4.503928     -1.352213      0.284499
  H      -3.954684     -2.582708     -3.319960
  H      -6.100798     -2.767080      0.367805
  P      -0.121733     -0.798236     -0.335533
  C       0.831301      0.155939     -1.688545
  C       0.998149     -1.117609      1.188439
  C      -0.147933      0.300999     -2.856512
  H       0.341947      0.805314     -3.688319
  H      -0.469072     -0.678484     -3.203312
  H      -1.011959      0.897718     -2.564295
  C       1.317652      1.560484     -1.329998
  H       2.003614      1.567681     -0.491109
  H       1.852691      1.959187     -2.191942
  H       0.485326      2.228294     -1.124059
  C       2.019397     -0.689710     -2.149727
  H       1.704490     -1.706868     -2.372155
  H       2.439398     -0.263440     -3.059971
  H       2.808813     -0.721363     -1.404357
  C       1.504003     -2.553525      0.993926
  H       0.658699     -3.242976      0.860924
  H       2.157709     -2.616638      0.124051
  H       2.063543     -2.879633      1.869842
  C       2.218293     -0.222004      1.410961
  H       1.947630      0.804776      1.637967
  H       2.760659     -0.605834      2.275389
  H       2.899881     -0.236851      0.566105
  C       0.121690     -1.060005      2.443692
  H      -0.121729     -0.037112      2.719040
  H      -0.811326     -1.601516      2.305167
  H       0.648367     -1.519345      3.278790
  Pd     -1.130188     -2.815588     -0.848106
  Br     -2.335568     -3.627836      1.323771
  N      -2.115651     -4.686697     -1.241996
  C      -0.175523     -3.256761     -2.564887
  C      -0.772103     -3.113917     -3.810115
  H      -1.677306     -2.530255     -3.934954
  C      -0.225113     -3.725829     -4.929160
  H      -0.705188     -3.604040     -5.890696
  C       0.917988     -4.495857     -4.815836
  H       1.337317     -4.979119     -5.686682
  C       1.514920     -4.650677     -3.577324
  H       2.403508     -5.257487     -3.472782
  C       0.971764     -4.036004     -2.459513
  H       1.462559     -4.181535     -1.501736
  C      -1.416353     -5.877412     -1.347786
  C      -1.757966     -6.850204     -2.291280
  H      -2.597300     -6.674572     -2.952743
  C      -1.028641     -8.018117     -2.390818
  H      -1.305238     -8.756158     -3.131046
  C       0.048745     -8.248402     -1.551391
  H       0.617054     -9.163133     -1.634119
  C       0.391418     -7.295554     -0.605643
  H       1.227938     -7.467441      0.057062
  C      -0.328053     -6.123294     -0.502707
  H      -0.045376     -5.383247      0.241038
  H      -2.980443     -4.674618     -1.781890
  H      -2.219547     -4.270944     -0.191304
  H       0.234882      1.664849      1.048470
  H      -1.206049      3.455603      1.849504
  H      -3.663495      3.295861      1.521967
  H      -4.606261      1.302927      0.441166
  H      -4.662541     -1.012539      1.298036
  H      -2.534575     -0.772529     -2.407830
  H      -5.747538     -3.566964     -1.944416
75
Coordinates from ORCA-job PR-103-p Relaxed Surface Scan Step 19 E -102.587568222880
  C      -2.725889      0.347021      0.102892
  C      -1.334088      0.460847      0.236461
  C      -0.825771      1.587260      0.887896
  C      -1.639824      2.600703      1.351296
  C      -3.010384      2.507050      1.177629
  C      -3.536325      1.385272      0.572186
  C      -3.459704     -0.803815     -0.465734
  C      -3.249223     -1.275454     -1.766524
  C      -4.083445     -2.259041     -2.295199
  C      -5.105320     -2.800692     -1.531246
  C      -5.308727     -2.348272     -0.236944
  C      -4.501541     -1.354794      0.285353
  H      -3.956315     -2.579186     -3.321820
  H      -6.098454     -2.769736      0.367795
  P      -0.120900     -0.797931     -0.336946
  C       0.834030      0.156753     -1.687842
  C       0.996111     -1.118507      1.188818
  C      -0.143786      0.301673     -2.857099
  H       0.347198      0.805569     -3.688514
  H      -0.464922     -0.677839     -3.204033
  H      -1.008008      0.898722     -2.566146
  C       1.319960      1.561202     -1.328314
  H       2.004554      1.568110     -0.488269
  H       1.856466      1.960014     -2.189284
  H       0.487332      2.228994     -1.123563
  C       2.022769     -0.689020     -2.147181
  H       1.707902     -1.705936     -2.370940
  H       2.444858     -0.262393     -3.056299
  H       2.810621     -0.721365     -1.400143
  C       1.504058     -2.553594      0.993945
  H       0.659953     -3.244045      0.858722
  H       2.159540     -2.615363      0.125315
  H       2.062358     -2.879746      1.870628
  C       2.214695     -0.221867      1.415450
  H       1.942408      0.804344      1.642916
  H       2.755466     -0.606068      2.280713
  H       2.898291     -0.235042      0.572154
  C       0.115948     -1.063753      2.441681
  H      -0.128416     -0.041389      2.718079
  H      -0.816595     -1.605362      2.299530
  H       0.640421     -1.524379      3.277400
  Pd     -1.128735     -2.816073     -0.850594
  Br     -2.336535     -3.642810      1.304398
  N      -2.112876     -4.687677     -1.242618
  C      -0.176368     -3.255332     -2.568962
  C      -0.774766     -3.111673     -3.813253
  H      -1.681364     -2.529686     -3.936047
  C      -0.227958     -3.720533     -4.934034
  H      -0.709681     -3.598231     -5.894723
  C       0.916996     -4.488201     -4.823576
  H       1.336019     -4.969417     -5.695749
  C       1.516374     -4.643121     -3.586273
  H       2.406642     -5.247919     -3.484050
  C       0.973511     -4.031356     -2.466697
  H       1.466917     -4.176581     -1.510283
  C      -1.414544     -5.876467     -1.348299
  C      -1.763679     -6.857958     -2.281483
  H      -2.607203     -6.686335     -2.939020
  C      -1.038207     -8.028290     -2.375781
  H      -1.321408     -8.771447     -3.108567
  C       0.044119     -8.254657     -1.541451
  H       0.609443     -9.171610     -1.620139
  C       0.394994     -7.294497     -0.606097
  H       1.235326     -7.462798      0.052848
  C      -0.320527     -6.119683     -0.508403
  H      -0.029830     -5.374649      0.227464
  H      -2.974062     -4.675977     -1.789184
  H      -2.220724     -4.260833     -0.166872
  H       0.235498      1.667244      1.044919
  H      -1.206222      3.456974      1.846637
  H      -3.663879      3.294663      1.522107
  H      -4.605971      1.300354      0.443254
  H      -4.659312     -1.016555      1.299464
  H      -2.534749     -0.770788     -2.408138
  H      -5.747746     -3.565331     -1.946370
75
Coordinates from ORCA-job PR-103-p Relaxed Surface Scan Step 20 E -102.582893776840
  C      -2.724753      0.340805      0.103802
  C      -1.333323      0.456944      0.238984
  C      -0.827915      1.580828      0.896825
  C      -1.644533      2.590265      1.364461
  C      -3.014705      2.494881      1.188765
  C      -3.537849      1.375052      0.577282
  C      -3.456006     -0.808914     -0.470541
  C      -3.245506     -1.273314     -1.773874
  C      -4.079373     -2.254529     -2.307548
  C      -5.100044     -2.801839     -1.546140
  C      -5.302988     -2.357113     -0.249070
  C      -4.496705     -1.365469      0.278083
  H      -3.952853     -2.568566     -3.336142
  H      -6.091896     -2.782753      0.353788
  P      -0.118650     -0.797583     -0.340710
  C       0.835353      0.165335     -1.686323
  C       0.997901     -1.122216      1.184372
  C      -0.142803      0.314529     -2.854829
  H       0.347546      0.822339     -3.684237
  H      -0.463172     -0.663799     -3.205934
  H      -1.007444      0.909601     -2.561115
  C       1.320169      1.568553     -1.320663
  H       2.005404      1.572149     -0.481084
  H       1.855663      1.971840     -2.180171
  H       0.487088      2.234605     -1.112230
  C       2.024691     -0.677351     -2.149863
  H       1.710301     -1.693112     -2.379571
  H       2.447112     -0.245445     -3.056346
  H       2.812192     -0.713600     -1.402631
  C       1.508496     -2.555463      0.983610
  H       0.665418     -3.247083      0.848621
  H       2.161466     -2.613313      0.112757
  H       2.070102     -2.883427      1.857496
  C       2.214600     -0.224297      1.415857
  H       1.940259      0.800564      1.646815
  H       2.755162     -0.610746      2.280239
  H       2.899126     -0.233020      0.573254
  C       0.116388     -1.074648      2.436655
  H      -0.127370     -0.053650      2.718611
  H      -0.816563     -1.614631      2.290578
  H       0.639842     -1.540287      3.270191
  Pd     -1.120308     -2.819746     -0.866769
  Br     -2.337947     -3.658278      1.277939
  N      -2.102795     -4.687025     -1.260889
  C      -0.169206     -3.250063     -2.587377
  C      -0.767104     -3.094065     -3.830471
  H      -1.677425     -2.516519     -3.946719
  C      -0.215433     -3.684757     -4.958535
  H      -0.696639     -3.552480     -5.918173
  C       0.933744     -4.447338     -4.856726
  H       1.356695     -4.914456     -5.734672
  C       1.531962     -4.615561     -3.620579
  H       2.425305     -5.216957     -3.525102
  C       0.984572     -4.021379     -2.493716
  H       1.477507     -4.176984     -1.538751
  C      -1.417418     -5.881707     -1.343968
  C      -1.792717     -6.892946     -2.235958
  H      -2.644891     -6.734204     -2.885978
  C      -1.084064     -8.075275     -2.299325
  H      -1.389003     -8.840132     -3.000645
  C       0.008835     -8.286941     -1.474803
  H       0.560839     -9.213721     -1.529411
  C       0.386843     -7.298130     -0.580534
  H       1.235707     -7.453723      0.070728
  C      -0.311797     -6.111562     -0.513865
  H       0.001165     -5.344345      0.189912
  H      -2.953651     -4.673172     -1.824219
  H      -2.220064     -4.241747     -0.153203
  H       0.232950      1.662057      1.055760
  H      -1.213179      3.444825      1.864697
  H      -3.670073      3.279497      1.536504
  H      -4.607191      1.288599      0.446969
  H      -4.654562     -1.032513      1.293913
  H      -2.531916     -0.764899     -2.413432
  H      -5.741776     -3.564780     -1.965379
75
Coordinates from ORCA-job PR-103-p Relaxed Surface Scan Step 21 E -102.577841074480
  C      -2.723990      0.339831      0.105937
  C      -1.332477      0.457096      0.238545
  C      -0.826903      1.582047      0.894462
  C      -1.643575      2.591251      1.362508
  C      -3.013984      2.494539      1.189380
  C      -3.537245      1.373666      0.579941
  C      -3.454911     -0.810462     -0.467562
  C      -3.245594     -1.273372     -1.771698
  C      -4.080592     -2.253184     -2.306087
  C      -5.100916     -2.800892     -1.544483
  C      -5.302234     -2.358180     -0.246484
  C      -4.495108     -1.367504      0.281369
  H      -3.955529     -2.565451     -3.335382
  H      -6.091035     -2.784125      0.356283
  P      -0.118344     -0.798062     -0.341597
  C       0.836800      0.164878     -1.686185
  C       0.996251     -1.122519      1.185047
  C      -0.140705      0.312370     -2.855535
  H       0.350031      0.819005     -3.685438
  H      -0.460953     -0.666534     -3.205470
  H      -1.005591      0.907773     -2.563186
  C       1.320750      1.568619     -1.321144
  H       2.004851      1.573066     -0.480642
  H       1.857381      1.971240     -2.180268
  H       0.487235      2.234707     -1.114542
  C       2.027010     -0.677646     -2.147861
  H       1.713410     -1.693859     -2.376812
  H       2.449951     -0.246548     -3.054493
  H       2.813896     -0.712523     -1.399898
  C       1.509205     -2.554932      0.984483
  H       0.667641     -3.248186      0.849279
  H       2.162703     -2.611724      0.113992
  H       2.071057     -2.881893      1.858600
  C       2.211442     -0.223367      1.419338
  H       1.935588      0.801078      1.650219
  H       2.750986     -0.609536      2.284475
  H       2.897415     -0.230941      0.577887
  C       0.112293     -1.076941      2.435727
  H      -0.133200     -0.056367      2.717638
  H      -0.819701     -1.618152      2.287781
  H       0.634958     -1.542224      3.269936
  Pd     -1.119925     -2.821469     -0.869185
  Br     -2.338504     -3.670111      1.263195
  N      -2.098014     -4.688981     -1.275372
  C      -0.168705     -3.249674     -2.589985
  C      -0.767531     -3.091273     -3.832301
  H      -1.680209     -2.516850     -3.945905
  C      -0.214275     -3.675675     -4.962789
  H      -0.696615     -3.541979     -5.921695
  C       0.937939     -4.434132     -4.864335
  H       1.362065     -4.896765     -5.744122
  C       1.537849     -4.603687     -3.629210
  H       2.433838     -5.201615     -3.536477
  C       0.988856     -4.015689     -2.499874
  H       1.483792     -4.172017     -1.546215
  C      -1.415880     -5.882368     -1.353209
  C      -1.797947     -6.903936     -2.232180
  H      -2.651930     -6.749295     -2.881176
  C      -1.094838     -8.089767     -2.283824
  H      -1.405381     -8.861375     -2.975493
  C       0.000082     -8.296985     -1.460678
  H       0.547893     -9.226838     -1.506473
  C       0.385152     -7.299360     -0.579212
  H       1.235417     -7.451458      0.071291
  C      -0.307834     -6.109230     -0.523610
  H       0.012023     -5.335660      0.170318
  H      -2.942403     -4.674866     -1.849041
  H      -2.224118     -4.227357     -0.124751
  H       0.234115      1.664352      1.051518
  H      -1.212059      3.446726      1.861038
  H      -3.669390      3.278994      1.537401
  H      -4.606709      1.286168      0.451449
  H      -4.652273     -1.035402      1.297560
  H      -2.532277     -0.764180     -2.411088
  H      -5.743677     -3.562592     -1.964385
