75
Coordinates from ORCA-job PR-104-p Relaxed Surface Scan Step 1 E -4338.941799271215
  C      -1.981105      2.499676      0.797541
  C      -0.610697      2.727156      1.019303
  C      -0.207400      3.977564      1.523931
  C      -1.126602      4.998530      1.756556
  C      -2.479346      4.789281      1.476116
  C      -2.898443      3.545720      1.008881
  C      -2.590580      1.179652      0.451394
  C      -3.248788      0.994437     -0.786977
  C      -4.137476     -0.061798     -0.962873
  C      -4.412606     -0.943101      0.097983
  C      -3.746769     -0.793998      1.311983
  C      -2.814390      0.243147      1.484378
  H      -4.643787     -0.189763     -1.922875
  H      -3.924147     -1.486458      2.136874
  P       0.614183      1.427887      0.568699
  C       1.588852      2.237047     -0.864799
  C       1.670601      1.148013      2.140546
  C       0.593576      2.304206     -2.037522
  H       1.101817      2.746362     -2.910730
  H       0.224713      1.315167     -2.326193
  H      -0.270863      2.942055     -1.795105
  C       2.080079      3.671260     -0.597380
  H       2.740321      3.753936      0.274232
  H       2.660036      3.990356     -1.479562
  H       1.250211      4.380419     -0.484080
  C       2.803203      1.364214     -1.227543
  H       2.533160      0.320752     -1.418935
  H       3.261896      1.770088     -2.144581
  H       3.570117      1.387768     -0.439387
  C       2.348148     -0.226916      2.020334
  H       1.603309     -1.033151      1.969506
  H       3.002335     -0.296889      1.140848
  H       2.968198     -0.394023      2.916614
  C       2.754398      2.207767      2.391785
  H       2.350737      3.220669      2.519135
  H       3.272801      1.948525      3.330321
  H       3.512003      2.225588      1.596452
  C       0.696438      1.108781      3.332110
  H       0.227896      2.084457      3.523186
  H      -0.093963      0.355916      3.190315
  H       1.261396      0.821884      4.234685
  Pd     -0.608202     -0.525352      0.136294
  Br     -1.216636     -2.643711      3.405595
  N      -1.565086     -2.494124      0.121509
  C       0.722966     -1.295951     -1.126078
  C       0.432631     -1.136107     -2.488055
  H      -0.431708     -0.550646     -2.808575
  C       1.238774     -1.739607     -3.460062
  H       1.001821     -1.599218     -4.518711
  C       2.332658     -2.522871     -3.080356
  H       2.965205     -2.992605     -3.838175
  C       2.596173     -2.716903     -1.721506
  H       3.431705     -3.349780     -1.408826
  C       1.791608     -2.112373     -0.747167
  H       2.006280     -2.298123      0.303934
  C      -1.036341     -3.658026     -0.510090
  C      -1.312086     -3.912238     -1.859770
  H      -1.942849     -3.217439     -2.419484
  C      -0.772906     -5.038662     -2.483313
  H      -0.991713     -5.226601     -3.537928
  C       0.046478     -5.919660     -1.768369
  H       0.469506     -6.799511     -2.259760
  C       0.314040     -5.666775     -0.418965
  H       0.946149     -6.352208      0.152157
  C      -0.221034     -4.541007      0.210557
  H      -0.025979     -4.340892      1.266268
  H      -2.516456     -2.314279     -0.203497
  H      -1.599790     -2.630500      1.212471
  H       0.840899      4.169135      1.737979
  H      -0.782432      5.958349      2.149230
  H      -3.209571      5.585752      1.639893
  H      -3.959788      3.361092      0.826853
  H      -2.353175      0.393958      2.461600
  H      -3.079232      1.713453     -1.591591
  H      -5.144241     -1.744347     -0.032601
75
Coordinates from ORCA-job PR-104-p Relaxed Surface Scan Step 2 E -4338.938181794294
  C      -1.979973      2.499254      0.792837
  C      -0.610321      2.730935      1.015289
  C      -0.210505      3.985331      1.512861
  C      -1.132441      5.005174      1.739591
  C      -2.484512      4.790973      1.459716
  C      -2.900074      3.544059      0.998324
  C      -2.586352      1.176615      0.450680
  C      -3.239285      0.984793     -0.789422
  C      -4.126405     -0.073007     -0.963807
  C      -4.405403     -0.949074      0.100214
  C      -3.744840     -0.793485      1.316371
  C      -2.813937      0.245069      1.487313
  H      -4.628660     -0.206069     -1.925246
  H      -3.925294     -1.482583      2.143285
  P       0.617111      1.431286      0.572161
  C       1.596307      2.237118     -0.860068
  C       1.668009      1.155387      2.148552
  C       0.607530      2.291732     -2.038985
  H       1.117456      2.734385     -2.910968
  H       0.248602      1.298368     -2.325720
  H      -0.263589      2.923445     -1.804363
  C       2.079259      3.675059     -0.598341
  H       2.733357      3.765934      0.277127
  H       2.663642      3.991506     -1.478557
  H       1.245445      4.381143     -0.494821
  C       2.816801      1.368137     -1.211076
  H       2.552293      0.322803     -1.399810
  H       3.279732      1.772153     -2.126791
  H       3.578408      1.398170     -0.417945
  C       2.344631     -0.220628      2.034040
  H       1.598765     -1.026165      1.980208
  H       3.002851     -0.292756      1.157736
  H       2.960114     -0.387280      2.933527
  C       2.751171      2.215144      2.401752
  H       2.347061      3.228325      2.524903
  H       3.266084      1.958227      3.342860
  H       3.511652      2.230972      1.609096
  C       0.689818      1.119002      3.336978
  H       0.221421      2.095280      3.525077
  H      -0.101939      0.368159      3.192645
  H       1.250752      0.832301      4.242059
  Pd     -0.598575     -0.526264      0.143577
  Br     -1.252352     -2.729493      3.377672
  N      -1.545726     -2.489888      0.135408
  C       0.732543     -1.297632     -1.117556
  C       0.434148     -1.149754     -2.479223
  H      -0.435444     -0.571632     -2.799256
  C       1.237872     -1.756584     -3.451026
  H       0.993610     -1.626463     -4.509320
  C       2.338297     -2.530927     -3.071534
  H       2.968516     -3.003929     -3.829258
  C       2.611947     -2.710766     -1.712805
  H       3.453475     -3.335535     -1.399867
  C       1.809593     -2.102930     -0.738748
  H       2.032351     -2.278161      0.312531
  C      -1.033729     -3.650232     -0.512645
  C      -1.365124     -3.914922     -1.848389
  H      -2.024299     -3.227121     -2.383865
  C      -0.846408     -5.041142     -2.489467
  H      -1.109677     -5.235919     -3.532656
  C       0.008238     -5.913785     -1.806225
  H       0.414275     -6.794369     -2.310452
  C       0.333167     -5.650750     -0.471398
  H       0.994867     -6.328328      0.075088
  C      -0.180168     -4.524342      0.174501
  H       0.065103     -4.316414      1.217964
  H      -2.504914     -2.312351     -0.167359
  H      -1.563820     -2.644228      1.274861
  H       0.837229      4.181187      1.725679
  H      -0.790880      5.968073      2.126977
  H      -3.216824      5.586501      1.618693
  H      -3.960766      3.356001      0.815992
  H      -2.357271      0.402814      2.465706
  H      -3.067224      1.700202     -1.596714
  H      -5.135642     -1.751706     -0.029540
75
Coordinates from ORCA-job PR-104-p Relaxed Surface Scan Step 3 E -4338.933587240141
  C      -1.979738      2.496522      0.786689
  C      -0.610996      2.733750      1.009001
  C      -0.215840      3.992010      1.500617
  C      -1.141318      5.009988      1.721290
  C      -2.492432      4.789981      1.441287
  C      -2.903461      3.539357      0.985946
  C      -2.581918      1.170411      0.449950
  C      -3.227104      0.969181     -0.792682
  C      -4.112418     -0.090492     -0.964914
  C      -4.397458     -0.958868      0.103611
  C      -3.744547     -0.794044      1.322756
  C      -2.815433      0.246202      1.491809
  H      -4.608687     -0.230804     -1.928427
  H      -3.930211     -1.477701      2.152922
  P       0.619413      1.433398      0.575629
  C       1.603341      2.232205     -0.857117
  C       1.664828      1.167872      2.157545
  C       0.617198      2.283310     -2.038410
  H       1.128534      2.725072     -2.910049
  H       0.260755      1.288591     -2.323918
  H      -0.255473      2.914181     -1.807161
  C       2.089512      3.669909     -0.600473
  H       2.740805      3.762841      0.276989
  H       2.677952      3.980829     -1.479976
  H       1.257342      4.378784     -0.503071
  C       2.821338      1.357787     -1.203121
  H       2.552782      0.312800     -1.389232
  H       3.287538      1.757269     -2.119173
  H       3.581558      1.387082     -0.408629
  C       2.348254     -0.205387      2.051281
  H       1.606075     -1.014232      1.994395
  H       3.012243     -0.276938      1.179321
  H       2.958799     -0.366994      2.955064
  C       2.741374      2.233720      2.412890
  H       2.330956      3.244901      2.531438
  H       3.253838      1.982343      3.356855
  H       3.504995      2.251823      1.623266
  C       0.681118      1.130324      3.341388
  H       0.207124      2.104820      3.524543
  H      -0.107243      0.376473      3.194198
  H       1.238339      0.848166      4.250166
  Pd     -0.589053     -0.530616      0.154367
  Br     -1.245702     -2.790009      3.354210
  N      -1.526994     -2.487929      0.155085
  C       0.743713     -1.303211     -1.104575
  C       0.443021     -1.161043     -2.466468
  H      -0.430002     -0.588194     -2.786882
  C       1.247916     -1.767436     -3.437535
  H       1.001140     -1.642366     -4.495870
  C       2.352502     -2.535596     -3.057329
  H       2.983173     -3.008909     -3.814491
  C       2.629844     -2.708447     -1.698522
  H       3.474946     -3.328021     -1.384810
  C       1.826024     -2.101231     -0.725287
  H       2.051247     -2.272305      0.326110
  C      -1.035810     -3.642810     -0.513595
  C      -1.422132     -3.910453     -1.834842
  H      -2.108045     -3.226172     -2.340831
  C      -0.924863     -5.032686     -2.499396
  H      -1.231927     -5.228087     -3.530499
  C      -0.036283     -5.900936     -1.854928
  H       0.353154     -6.778517     -2.377182
  C       0.343962     -5.636705     -0.534982
  H       1.032842     -6.310593     -0.018259
  C      -0.147562     -4.513930      0.133582
  H       0.142318     -4.306862      1.165417
  H      -2.493467     -2.309960     -0.122886
  H      -1.519884     -2.656611      1.343149
  H       0.830961      4.192429      1.713675
  H      -0.803303      5.975974      2.104102
  H      -3.227476      5.583943      1.595454
  H      -3.963342      3.346937      0.803398
  H      -2.364709      0.412447      2.471628
  H      -3.050727      1.679008     -1.603959
  H      -5.126090     -1.763137     -0.024914
75
Coordinates from ORCA-job PR-104-p Relaxed Surface Scan Step 4 E -4338.931424907452
  C      -2.025205      2.361263      0.702464
  C      -0.672337      2.707376      0.889277
  C      -0.355820      4.043419      1.198082
  C      -1.338512      5.030212      1.257912
  C      -2.669558      4.697400      0.995909
  C      -3.005607      3.371266      0.732307
  C      -2.552045      0.965748      0.620294
  C      -3.411949      0.589543     -0.440699
  C      -4.253364     -0.510135     -0.313760
  C      -4.267836     -1.261888      0.875593
  C      -3.393055     -0.939218      1.910048
  C      -2.519387      0.153710      1.778821
  H      -4.921222     -0.779116     -1.135722
  H      -3.372973     -1.532600      2.825758
  P       0.638189      1.440169      0.619483
  C       1.584360      2.116107     -0.900038
  C       1.696609      1.445368      2.215558
  C       0.607915      1.947579     -2.079644
  H       1.102923      2.286334     -3.005039
  H       0.297764      0.906538     -2.220763
  H      -0.295070      2.561835     -1.938194
  C       1.973899      3.603391     -0.837253
  H       2.606985      3.852025      0.022908
  H       2.553153      3.831677     -1.747749
  H       1.098170      4.265259     -0.838745
  C       2.862440      1.286120     -1.115035
  H       2.670780      0.208237     -1.124383
  H       3.298332      1.560670     -2.090089
  H       3.618192      1.501636     -0.345416
  C       2.465941      0.117354      2.281274
  H       1.774776     -0.731665      2.360131
  H       3.115318     -0.041506      1.410289
  H       3.101773      0.120416      3.182094
  C       2.700205      2.604667      2.325406
  H       2.224466      3.593922      2.318542
  H       3.226051      2.507539      3.290030
  H       3.462630      2.571520      1.535493
  C       0.724278      1.491383      3.407667
  H       0.157444      2.432016      3.456383
  H       0.014278      0.651045      3.380849
  H       1.307105      1.397473      4.339014
  Pd     -0.494085     -0.590080      0.262115
  Br     -0.640012     -3.487676      2.992544
  N      -1.470869     -2.498400      0.074328
  C       1.022029     -1.516295     -0.663695
  C       1.012071     -1.565399     -2.064374
  H       0.240664     -1.046406     -2.635542
  C       1.977006     -2.302601     -2.757898
  H       1.955104     -2.323537     -3.851214
  C       2.955066     -3.016941     -2.059171
  H       3.709731     -3.594976     -2.599143
  C       2.941929     -3.004117     -0.662443
  H       3.682676     -3.580836     -0.100396
  C       1.976579     -2.263946      0.032832
  H       1.967536     -2.303067      1.120873
  C      -1.259731     -3.404209     -0.999621
  C      -1.936180     -3.215156     -2.214496
  H      -2.630646     -2.377011     -2.313416
  C      -1.710040     -4.078021     -3.288129
  H      -2.243074     -3.919649     -4.229407
  C      -0.798942     -5.132929     -3.165650
  H      -0.613083     -5.801920     -4.009670
  C      -0.129527     -5.324457     -1.952413
  H       0.582090     -6.147666     -1.844851
  C      -0.360579     -4.471790     -0.872019
  H       0.156648     -4.620732      0.076230
  H      -2.463478     -2.267106      0.128331
  H      -1.181159     -2.982820      1.189633
  H       0.674650      4.332739      1.387739
  H      -1.059602      6.059302      1.497641
  H      -3.448761      5.463433      1.021630
  H      -4.051838      3.095681      0.582435
  H      -1.921338      0.465001      2.635794
  H      -3.442058      1.204424     -1.343017
  H      -4.957682     -2.102517      0.982010
75
Coordinates from ORCA-job PR-104-p Relaxed Surface Scan Step 5 E -4338.926497689962
  C      -2.023749      2.359574      0.695238
  C      -0.671123      2.705598      0.883676
  C      -0.354565      4.042548      1.186648
  C      -1.336528      5.030385      1.239009
  C      -2.667068      4.697246      0.974772
  C      -3.003525      3.370243      0.717325
  C      -2.551336      0.964079      0.620081
  C      -3.413367      0.583344     -0.437477
  C      -4.255989     -0.514581     -0.303964
  C      -4.269468     -1.260489      0.888936
  C      -3.393031     -0.933195      1.920613
  C      -2.518632      0.157790      1.782501
  H      -4.925235     -0.787136     -1.123549
  H      -3.373924     -1.520858      2.840013
  P       0.638425      1.435491      0.619969
  C       1.594106      2.111807     -0.893750
  C       1.688996      1.441237      2.221929
  C       0.621649      1.950600     -2.077565
  H       1.120929      2.290372     -3.000346
  H       0.307899      0.911471     -2.223040
  H      -0.279570      2.567631     -1.937083
  C       1.989895      3.597233     -0.827488
  H       2.618008      3.843579      0.036716
  H       2.576300      3.823667     -1.733863
  H       1.116597      4.262045     -0.834547
  C       2.869291      1.276683     -1.106567
  H       2.673282      0.199762     -1.117529
  H       3.308657      1.550783     -2.080222
  H       3.623843      1.488310     -0.334953
  C       2.455052      0.111854      2.294958
  H       1.761413     -0.735528      2.371757
  H       3.109119     -0.050975      1.428207
  H       3.085565      0.115677      3.199555
  C       2.694198      2.598714      2.335479
  H       2.220143      3.588804      2.322597
  H       3.213313      2.503159      3.303962
  H       3.461674      2.563055      1.550548
  C       0.711282      1.491941      3.409340
  H       0.146614      2.433928      3.454156
  H      -0.000724      0.653613      3.380576
  H       1.289582      1.397963      4.343386
  Pd     -0.497580     -0.593003      0.259006
  Br     -0.628845     -3.505652      2.971033
  N      -1.471986     -2.496167      0.075724
  C       1.018274     -1.512856     -0.671431
  C       1.000687     -1.558168     -2.072415
  H       0.220039     -1.046027     -2.637288
  C       1.969453     -2.282171     -2.774667
  H       1.941529     -2.298745     -3.868015
  C       2.959223     -2.988580     -2.084564
  H       3.718060     -3.554415     -2.631740
  C       2.952477     -2.982718     -0.687553
  H       3.702015     -3.553720     -0.131531
  C       1.983238     -2.255374      0.016160
  H       1.982160     -2.298440      1.103813
  C      -1.262395     -3.401560     -0.997049
  C      -1.950021     -3.225922     -2.208861
  H      -2.651968     -2.393525     -2.307845
  C      -1.726632     -4.092896     -3.280154
  H      -2.269340     -3.943674     -4.217795
  C      -0.807150     -5.141060     -3.160099
  H      -0.625139     -5.814663     -4.001436
  C      -0.126180     -5.320097     -1.950857
  H       0.591449     -6.138172     -1.843390
  C      -0.353931     -4.462809     -0.873449
  H       0.172604     -4.604388      0.070844
  H      -2.464397     -2.264733      0.130443
  H      -1.161332     -3.001635      1.232442
  H       0.675690      4.331727      1.377379
  H      -1.057566      6.060197      1.474635
  H      -3.445769      5.463813      0.994061
  H      -4.049653      3.094745      0.566314
  H      -1.919638      0.473766      2.636943
  H      -3.444336      1.193724     -1.342803
  H      -4.959911     -2.099821      1.000770
75
Coordinates from ORCA-job PR-104-p Relaxed Surface Scan Step 6 E -4338.921724065953
  C      -2.021838      2.359720      0.690756
  C      -0.669376      2.705319      0.881739
  C      -0.352715      4.042779      1.182254
  C      -1.334284      5.031219      1.231163
  C      -2.664552      4.698193      0.965351
  C      -3.001168      3.370906      0.709483
  C      -2.549800      0.964210      0.616870
  C      -3.412869      0.582810     -0.439596
  C      -4.256671     -0.513921     -0.303979
  C      -4.270115     -1.258135      0.889898
  C      -3.393097     -0.929933      1.920786
  C      -2.517996      0.160047      1.780801
  H      -4.926578     -0.787061     -1.122836
  H      -3.375023     -1.515803      2.841345
  P       0.639201      1.433616      0.620072
  C       1.600035      2.115207     -0.888084
  C       1.685696      1.436315      2.224945
  C       0.633569      1.953385     -2.076760
  H       1.135463      2.298115     -2.996300
  H       0.325229      0.913343     -2.226757
  H      -0.271004      2.566050     -1.938599
  C       1.990967      3.601702     -0.817157
  H       2.613884      3.848655      0.050666
  H       2.581152      3.831781     -1.720164
  H       1.115419      4.263664     -0.827083
  C       2.878819      1.284442     -1.096427
  H       2.686239      0.207044     -1.109643
  H       3.321723      1.561290     -2.067718
  H       3.629312      1.497380     -0.321125
  C       2.448406      0.105031      2.298710
  H       1.752431     -0.740954      2.370626
  H       3.105622     -0.057637      1.434327
  H       3.075192      0.105406      3.205939
  C       2.693356      2.591207      2.342539
  H       2.221539      3.582356      2.329316
  H       3.209793      2.493628      3.312284
  H       3.462775      2.554696      1.559518
  C       0.705204      1.488137      3.409977
  H       0.141759      2.430925      3.453702
  H      -0.007956      0.650865      3.379198
  H       1.280974      1.393041      4.345500
  Pd     -0.498210     -0.594795      0.252467
  Br     -0.644017     -3.505127      2.958086
  N      -1.470021     -2.492257      0.074662
  C       1.016470     -1.512348     -0.681278
  C       0.992866     -1.560279     -2.082311
  H       0.205431     -1.055113     -2.644084
  C       1.963321     -2.278167     -2.788341
  H       1.930365     -2.296316     -3.881550
  C       2.961288     -2.976963     -2.102135
  H       3.721505     -3.538107     -2.652238
  C       2.960737     -2.969575     -0.705116
  H       3.716748     -3.534697     -0.151807
  C       1.989695     -2.248013      0.002123
  H       1.995155     -2.288869      1.089913
  C      -1.263760     -3.400233     -0.993728
  C      -1.965066     -3.241106     -2.201033
  H      -2.674981     -2.415356     -2.299470
  C      -1.746015     -4.114119     -3.268398
  H      -2.299711     -3.975923     -4.201386
  C      -0.816820     -5.154007     -3.150897
  H      -0.638031     -5.832275     -3.989199
  C      -0.122212     -5.318253     -1.947168
  H       0.603098     -6.129796     -1.840923
  C      -0.345671     -4.454796     -0.873949
  H       0.192498     -4.586119      0.065134
  H      -2.461599     -2.257749      0.125679
  H      -1.149476     -3.010586      1.279272
  H       0.677561      4.331862      1.373328
  H      -1.055225      6.061406      1.465092
  H      -3.442908      5.465199      0.981589
  H      -4.047144      3.095733      0.556791
  H      -1.918894      0.477234      2.634687
  H      -3.443608      1.191815     -1.345872
  H      -4.960957     -2.096940      1.003150
75
Coordinates from ORCA-job PR-104-p Relaxed Surface Scan Step 7 E -4338.917382089571
  C      -2.021214      2.359701      0.691242
  C      -0.669020      2.705647      0.883149
  C      -0.353407      4.042438      1.187727
  C      -1.335313      5.030552      1.236875
  C      -2.664991      4.697678      0.967878
  C      -3.000858      3.370631      0.709777
  C      -2.548872      0.964023      0.617127
  C      -3.409829      0.582470     -0.440966
  C      -4.254712     -0.513579     -0.306581
  C      -4.271688     -1.256627      0.887875
  C      -3.397596     -0.927630      1.920972
  C      -2.521268      0.161304      1.782191
  H      -4.922621     -0.787080     -1.126955
  H      -3.383050     -1.512306      2.842353
  P       0.638927      1.433117      0.621540
  C       1.600542      2.110566     -0.888516
  C       1.686559      1.438474      2.225879
  C       0.633471      1.946435     -2.076415
  H       1.134924      2.289213     -2.996966
  H       0.325260      0.905880     -2.223989
  H      -0.271058      2.559392     -1.939199
  C       1.995559      3.596220     -0.823708
  H       2.618064      3.845448      0.043687
  H       2.587497      3.820705     -1.727011
  H       1.121974      4.260523     -0.837918
  C       2.876541      1.275337     -1.095817
  H       2.680036      0.198505     -1.106279
  H       3.319817      1.548341     -2.068046
  H       3.628246      1.487388     -0.321462
  C       2.451144      0.108174      2.299097
  H       1.756253     -0.739123      2.368051
  H       3.110019     -0.052068      1.435480
  H       3.076426      0.107827      3.207392
  C       2.692530      2.594729      2.343481
  H       2.218921      3.585087      2.330773
  H       3.209756      2.497799      3.312902
  H       3.461546      2.559814      1.560020
  C       0.706859      1.488662      3.411610
  H       0.141496      2.430302      3.455381
  H      -0.004700      0.650042      3.381474
  H       1.283294      1.395016      4.346892
  Pd     -0.497019     -0.598756      0.255004
  Br     -0.680938     -3.520102      2.951416
  N      -1.471187     -2.486212      0.068202
  C       1.018126     -1.514426     -0.679067
  C       0.994925     -1.560656     -2.080309
  H       0.204368     -1.058958     -2.641074
  C       1.969183     -2.272040     -2.787599
  H       1.936174     -2.288827     -3.880856
  C       2.971449     -2.966101     -2.102657
  H       3.734781     -3.522074     -2.653716
  C       2.971516     -2.960061     -0.705606
  H       3.731355     -3.520996     -0.153246
  C       1.996502     -2.244932      0.002699
  H       2.004121     -2.285422      1.090560
  C      -1.266276     -3.393810     -0.997725
  C      -1.976676     -3.246712     -2.202254
  H      -2.692815     -2.426135     -2.300029
  C      -1.759669     -4.122933     -3.267434
  H      -2.320812     -3.992048     -4.197111
  C      -0.823238     -5.156615     -3.152394
  H      -0.645992     -5.837529     -3.988898
  C      -0.119732     -5.310778     -1.952305
  H       0.611116     -6.117575     -1.847116
  C      -0.341073     -4.443858     -0.881706
  H       0.204888     -4.568818      0.053642
  H      -2.460726     -2.241987      0.108089
  H      -1.150687     -3.021733      1.321397
  H       0.676263      4.331048      1.382533
  H      -1.057060      6.060298      1.473733
  H      -3.443648      5.464381      0.984410
  H      -4.046605      3.095311      0.555775
  H      -1.924133      0.478950      2.637232
  H      -3.437802      1.190674     -1.347880
  H      -4.963017     -2.095187      0.999919
75
Coordinates from ORCA-job PR-104-p Relaxed Surface Scan Step 8 E -4338.913486217056
  C      -2.019753      2.360164      0.689360
  C      -0.667674      2.705816      0.882645
  C      -0.352216      4.042550      1.187776
  C      -1.334008      5.030805      1.236610
  C      -2.663560      4.698141      0.966680
  C      -2.999321      3.371227      0.707768
  C      -2.547661      0.964573      0.614114
  C      -3.408739      0.584169     -0.444250
  C      -4.253323     -0.512220     -0.311123
  C      -4.270464     -1.256299      0.882637
  C      -3.397663     -0.927194      1.916739
  C      -2.521049      0.161454      1.778847
  H      -4.920748     -0.785322     -1.132040
  H      -3.384261     -1.511970      2.838103
  P       0.639734      1.432430      0.621660
  C       1.604160      2.112485     -0.885601
  C       1.685147      1.436572      2.227720
  C       0.641190      1.945204     -2.076392
  H       1.144198      2.289647     -2.995501
  H       0.336957      0.903566     -2.224753
  H      -0.265802      2.555140     -1.941880
  C       1.995123      3.599164     -0.820390
  H       2.614383      3.850409      0.048720
  H       2.589070      3.825026     -1.722055
  H       1.119780      4.261121     -0.837285
  C       2.882978      1.280609     -1.088903
  H       2.689179      0.203344     -1.099550
  H       3.328523      1.554440     -2.059886
  H       3.631842      1.494830     -0.312363
  C       2.447972      0.105222      2.301299
  H       1.751830     -0.741399      2.366785
  H       3.108924     -0.054608      1.439196
  H       3.070808      0.102656      3.211295
  C       2.692535      2.591274      2.348306
  H       2.220293      3.582287      2.335493
  H       3.207982      2.492959      3.318569
  H       3.462905      2.555971      1.566198
  C       0.703645      1.487013      3.411937
  H       0.139633      2.429467      3.455724
  H      -0.009310      0.649652      3.379569
  H       1.278253      1.391456      4.348175
  Pd     -0.495804     -0.600333      0.250028
  Br     -0.697394     -3.520849      2.949588
  N      -1.469581     -2.482557      0.064676
  C       1.019026     -1.514341     -0.685861
  C       0.995540     -1.560198     -2.087245
  H       0.201500     -1.063046     -2.647193
  C       1.973922     -2.264720     -2.795633
  H       1.940367     -2.281067     -3.888902
  C       2.981094     -2.952863     -2.111832
  H       3.747631     -3.503600     -2.663723
  C       2.982294     -2.947150     -0.714758
  H       3.746522     -3.502971     -0.163237
  C       2.003203     -2.238538     -0.005511
  H       2.013385     -2.277849      1.082435
  C      -1.269661     -3.392080     -0.997651
  C      -1.992397     -3.259083     -2.197629
  H      -2.713582     -2.442764     -2.294795
  C      -1.782168     -4.142288     -3.258466
  H      -2.353185     -4.020796     -4.183504
  C      -0.839824     -5.170862     -3.145587
  H      -0.667693     -5.857210     -3.978754
  C      -0.124072     -5.312600     -1.951087
  H       0.611313     -6.115514     -1.847014
  C      -0.338985     -4.438898     -0.884860
  H       0.216843     -4.555532      0.045630
  H      -2.457701     -2.234750      0.101737
  H      -1.143872     -3.033354      1.365844
  H       0.677390      4.330960      1.383250
  H      -1.055819      6.060463      1.473970
  H      -3.442171      5.464907      0.982960
  H      -4.044979      3.096078      0.552857
  H      -1.923821      0.478326      2.634117
  H      -3.436144      1.192850     -1.350879
  H      -4.961537     -2.095201      0.993700
75
Coordinates from ORCA-job PR-104-p Relaxed Surface Scan Step 9 E -4338.910085687190
  C      -2.019364      2.361898      0.689959
  C      -0.667131      2.706666      0.884010
  C      -0.351363      4.042738      1.191759
  C      -1.332625      5.031465      1.241461
  C      -2.662154      4.699920      0.970006
  C      -2.998397      3.373534      0.709110
  C      -2.548402      0.966751      0.613002
  C      -3.409692      0.589017     -0.446103
  C      -4.257303     -0.505154     -0.314101
  C      -4.276741     -1.250019      0.879016
  C      -3.403174     -0.924150      1.913474
  C      -2.524406      0.162789      1.777207
  H      -4.925073     -0.775972     -1.135494
  H      -3.392059     -1.509493      2.834493
  P       0.639209      1.432064      0.622561
  C       1.605316      2.111501     -0.884206
  C       1.684668      1.436227      2.228840
  C       0.641486      1.947985     -2.074870
  H       1.144685      2.292969     -2.993699
  H       0.335454      0.907020     -2.224645
  H      -0.264389      2.559327     -1.939072
  C       2.001790      3.596658     -0.818621
  H       2.621775      3.845493      0.050673
  H       2.596765      3.820630     -1.720103
  H       1.128929      4.261844     -0.835599
  C       2.880530      1.274584     -1.089351
  H       2.681842      0.198126     -1.101139
  H       3.326745      1.547607     -2.060269
  H       3.630797      1.484442     -0.312976
  C       2.448878      0.105538      2.300403
  H       1.753519     -0.742170      2.361926
  H       3.111536     -0.051117      1.438990
  H       3.070071      0.100979      3.211539
  C       2.690874      2.591696      2.351457
  H       2.217419      3.582170      2.340493
  H       3.206769      2.492341      3.321406
  H       3.461045      2.558822      1.569037
  C       0.703242      1.483672      3.413271
  H       0.138146      2.425378      3.458592
  H      -0.008891      0.645658      3.379542
  H       1.277884      1.387230      4.349421
  Pd     -0.495763     -0.602421      0.247429
  Br     -0.723100     -3.521990      2.954399
  N      -1.469948     -2.477279      0.057337
  C       1.018266     -1.515117     -0.690743
  C       0.993360     -1.560656     -2.092237
  H       0.196445     -1.066271     -2.650732
  C       1.973127     -2.261369     -2.802437
  H       1.938175     -2.277154     -3.895699
  C       2.983732     -2.946464     -2.120508
  H       3.751479     -3.494162     -2.673758
  C       2.986596     -2.941677     -0.723394
  H       3.753567     -3.495096     -0.173230
  C       2.006009     -2.236725     -0.012544
  H       2.018630     -2.275887      1.075453
  C      -1.268758     -3.389257     -0.999631
  C      -2.000333     -3.274143     -2.197041
  H      -2.730120     -2.465625     -2.296190
  C      -1.788941     -4.163388     -3.252637
  H      -2.367440     -4.054171     -4.174632
  C      -0.836072     -5.182168     -3.138962
  H      -0.663030     -5.873260     -3.968020
  C      -0.111199     -5.307516     -1.947880
  H       0.632399     -6.102747     -1.842404
  C      -0.327217     -4.427656     -0.887251
  H       0.236587     -4.532572      0.039899
  H      -2.456750     -2.221532      0.082357
  H      -1.143793     -3.042040      1.408140
  H       0.678185      4.330162      1.388924
  H      -1.054095      6.060590      1.480754
  H      -3.440419      5.467030      0.987008
  H      -4.044132      3.099142      0.553334
  H      -1.927460      0.478071      2.633252
  H      -3.435607      1.198788     -1.352039
  H      -4.969466     -2.087700      0.988913
75
Coordinates from ORCA-job PR-104-p Relaxed Surface Scan Step 10 E -4338.907111856060
  C      -2.017983      2.363905      0.691418
  C      -0.665386      2.706794      0.886426
  C      -0.348196      4.042321      1.195207
  C      -1.328261      5.032168      1.246020
  C      -2.658212      4.702396      0.974446
  C      -2.995858      3.376713      0.711886
  C      -2.548966      0.969647      0.611522
  C      -3.411352      0.596131     -0.448077
  C      -4.260747     -0.496999     -0.318549
  C      -4.280894     -1.244779      0.872630
  C      -3.406786     -0.922552      1.907729
  C      -2.526411      0.163178      1.773946
  H      -4.929062     -0.764836     -1.140490
  H      -3.396898     -1.509795      2.827541
  P       0.639434      1.430729      0.623787
  C       1.607105      2.113804     -0.880512
  C       1.683881      1.432797      2.230951
  C       0.645498      1.950422     -2.073025
  H       1.149371      2.298166     -2.990466
  H       0.342074      0.909006     -2.225026
  H      -0.261952      2.559539     -1.937606
  C       2.001463      3.599357     -0.812210
  H       2.620002      3.847665      0.058311
  H       2.597190      3.825831     -1.712587
  H       1.127601      4.263314     -0.828925
  C       2.883714      1.278868     -1.084947
  H       2.686123      0.202287     -1.098838
  H       3.331328      1.554041     -2.054628
  H       3.632465      1.488218     -0.306932
  C       2.446682      0.101254      2.301731
  H       1.750404     -0.745970      2.359912
  H       3.110990     -0.054282      1.441391
  H       3.065987      0.094244      3.214166
  C       2.691373      2.586851      2.356102
  H       2.219048      3.577871      2.346351
  H       3.206747      2.485525      3.326153
  H       3.461881      2.554362      1.573974
  C       0.701412      1.479734      3.414556
  H       0.137458      2.422086      3.460676
  H      -0.011941      0.642800      3.378755
  H       1.274875      1.381119      4.351225
  Pd     -0.495773     -0.604210      0.240603
  Br     -0.737456     -3.500111      2.963238
  N      -1.474829     -2.471162      0.045627
  C       1.016706     -1.515363     -0.701361
  C       0.989514     -1.560794     -2.102944
  H       0.189120     -1.069856     -2.659609
  C       1.971051     -2.256645     -2.815422
  H       1.934016     -2.272152     -3.908645
  C       2.986267     -2.937401     -2.135904
  H       3.755445     -3.481300     -2.690931
  C       2.991797     -2.933163     -0.738779
  H       3.762522     -3.483145     -0.190373
  C       2.009305     -2.233019     -0.025821
  H       2.024851     -2.272015      1.062184
  C      -1.270973     -3.388839     -1.002491
  C      -2.010438     -3.295817     -2.198023
  H      -2.748268     -2.495208     -2.302787
  C      -1.797838     -4.195496     -3.244556
  H      -2.383038     -4.101826     -4.164123
  C      -0.835430     -5.204652     -3.125542
  H      -0.661321     -5.903859     -3.947558
  C      -0.102762     -5.309571     -1.936988
  H       0.648051     -6.097408     -1.826473
  C      -0.320168     -4.419595     -0.885462
  H       0.249964     -4.510202      0.039337
  H      -2.457993     -2.201765      0.052064
  H      -1.142804     -3.039620      1.448879
  H       0.681772      4.328420      1.392155
  H      -1.048511      6.060764      1.486196
  H      -3.435631      5.470353      0.992289
  H      -4.041875      3.103734      0.555521
  H      -1.928385      0.475281      2.630422
  H      -3.436492      1.208137     -1.352532
  H      -4.974468     -2.082019      0.980437
75
Coordinates from ORCA-job PR-104-p Relaxed Surface Scan Step 11 E -4338.904443420795
  C      -2.017105      2.362865      0.695594
  C      -0.664316      2.705973      0.888207
  C      -0.346961      4.041694      1.196083
  C      -1.326930      5.031616      1.247377
  C      -2.657126      4.701676      0.977257
  C      -2.994918      3.375792      0.715948
  C      -2.548417      0.968743      0.615740
  C      -3.410658      0.596425     -0.444345
  C      -4.260012     -0.496936     -0.316375
  C      -4.281065     -1.245573      0.874157
  C      -3.408065     -0.923783      1.910245
  C      -2.527141      0.161497      1.777669
  H      -4.927716     -0.764142     -1.139036
  H      -3.399282     -1.511372      2.829862
  P       0.640036      1.429180      0.626298
  C       1.607183      2.108994     -0.880077
  C       1.684663      1.437483      2.233644
  C       0.645261      1.941358     -2.071742
  H       1.148060      2.287854     -2.990265
  H       0.343652      0.898868     -2.221091
  H      -0.263239      2.549143     -1.937254
  C       2.001728      3.594716     -0.816675
  H       2.620746      3.845701      0.052769
  H       2.597033      3.818422     -1.718043
  H       1.127943      4.258714     -0.835000
  C       2.883230      1.272985     -1.083521
  H       2.684843      0.196398     -1.094685
  H       3.330256      1.545570     -2.054219
  H       3.632758      1.483669     -0.306627
  C       2.446846      0.106142      2.311662
  H       1.750154     -0.740308      2.374106
  H       3.111312     -0.054167      1.452407
  H       3.065920      0.103631      3.224305
  C       2.692620      2.591550      2.354328
  H       2.220733      3.582719      2.340060
  H       3.207607      2.494268      3.325014
  H       3.463427      2.555364      1.572668
  C       0.701763      1.490735      3.416551
  H       0.137725      2.433354      3.457152
  H      -0.011610      0.653648      3.384997
  H       1.274741      1.397369      4.354059
  Pd     -0.493906     -0.607883      0.244014
  Br     -0.757735     -3.502599      2.978701
  N      -1.480261     -2.466227      0.033984
  C       1.017025     -1.517422     -0.701880
  C       0.995151     -1.547676     -2.104043
  H       0.198932     -1.046971     -2.658252
  C       1.976925     -2.239067     -2.820533
  H       1.944143     -2.242133     -3.914016
  C       2.987068     -2.931155     -2.144887
  H       3.756341     -3.471739     -2.703027
  C       2.987112     -2.942521     -0.747795
  H       3.753504     -3.501725     -0.202621
  C       2.004459     -2.246632     -0.030916
  H       2.015435     -2.298445      1.056448
  C      -1.273069     -3.384534     -1.010451
  C      -2.013935     -3.301598     -2.206694
  H      -2.755541     -2.504842     -2.315017
  C      -1.798804     -4.205427     -3.249172
  H      -2.385506     -4.118469     -4.168519
  C      -0.832069     -5.210034     -3.126840
  H      -0.655884     -5.912446     -3.945693
  C      -0.098073     -5.306092     -1.938169
  H       0.655857     -6.090569     -1.824442
  C      -0.318235     -4.412300     -0.890708
  H       0.252894     -4.497238      0.034001
  H      -2.460555     -2.186723      0.026613
  H      -1.147724     -3.050022      1.486087
  H       0.683157      4.327879      1.391918
  H      -1.046933      6.060362      1.486656
  H      -3.434559      5.469622      0.995284
  H      -4.041060      3.102708      0.560613
  H      -1.929058      0.472496      2.634465
  H      -3.435059      1.209003     -1.348441
  H      -4.974586     -2.083015      0.980750
75
Coordinates from ORCA-job PR-104-p Relaxed Surface Scan Step 12 E -4338.902136502664
  C      -2.017051      2.365529      0.695832
  C      -0.663925      2.706452      0.890659
  C      -0.345168      4.041481      1.200195
  C      -1.323852      5.032627      1.252305
  C      -2.654332      4.704777      0.981020
  C      -2.993570      3.379749      0.717334
  C      -2.550438      0.972297      0.613221
  C      -3.414324      0.603634     -0.446726
  C      -4.265488     -0.488478     -0.320052
  C      -4.286603     -1.239423      0.868964
  C      -3.412235     -0.920953      1.904883
  C      -2.529830      0.163138      1.773737
  H      -4.934321     -0.753044     -1.142661
  H      -3.404106     -1.509915      2.823634
  P       0.639131      1.428561      0.626346
  C       1.606906      2.112385     -0.877953
  C       1.685101      1.431125      2.232931
  C       0.646289      1.945696     -2.070846
  H       1.149659      2.294002     -2.988395
  H       0.345701      0.903167     -2.221969
  H      -0.262864      2.552515     -1.936344
  C       1.999766      3.598436     -0.811870
  H       2.617839      3.848734      0.058431
  H       2.595434      3.824407     -1.712447
  H       1.125191      4.261460     -0.829636
  C       2.884215      1.278296     -1.081248
  H       2.687043      0.201580     -1.094321
  H       3.332207      1.552971     -2.050921
  H       3.632511      1.488579     -0.303019
  C       2.446015      0.098436      2.304130
  H       1.748518     -0.747904      2.361139
  H       3.110797     -0.057668      1.444278
  H       3.064573      0.090068      3.217101
  C       2.694767      2.583323      2.357414
  H       2.224300      3.575200      2.347794
  H       3.210811      2.481362      3.327082
  H       3.464616      2.549321      1.574693
  C       0.703496      1.480255      3.417107
  H       0.140645      2.423339      3.462596
  H      -0.011023      0.644257      3.382421
  H       1.277237      1.381869      4.353655
  Pd     -0.495754     -0.607805      0.237284
  Br     -0.763582     -3.487014      2.992399
  N      -1.485504     -2.460228      0.021781
  C       1.015480     -1.517236     -0.708028
  C       0.988942     -1.560114     -2.109855
  H       0.185765     -1.072181     -2.665457
  C       1.974330     -2.248888     -2.823900
  H       1.937293     -2.262380     -3.917193
  C       2.993981     -2.924830     -2.146043
  H       3.766385     -3.462892     -2.702307
  C       2.999934     -2.922846     -0.748877
  H       3.774413     -3.468814     -0.201684
  C       2.013225     -2.230081     -0.034581
  H       2.030131     -2.270034      1.053453
  C      -1.276192     -3.382630     -1.015945
  C      -2.021894     -3.315724     -2.211076
  H      -2.768907     -2.524573     -2.323950
  C      -1.805811     -4.227679     -3.246338
  H      -2.396891     -4.152248     -4.163981
  C      -0.832507     -5.225389     -3.119633
  H      -0.655427     -5.933973     -3.932975
  C      -0.093322     -5.306324     -1.932824
  H       0.665547     -6.085516     -1.815033
  C      -0.314853     -4.404943     -0.892390
  H       0.260150     -4.479302      0.030888
  H      -2.463396     -2.173439      0.003137
  H      -1.145652     -3.052552      1.523830
  H       0.685256      4.326202      1.396535
  H      -1.042627      6.060713      1.493004
  H      -3.430806      5.473685      0.999654
  H      -4.039950      3.108279      0.560781
  H      -1.930630      0.471672      2.630651
  H      -3.438498      1.218002     -1.349617
  H      -4.981142     -2.076159      0.974423
75
Coordinates from ORCA-job PR-104-p Relaxed Surface Scan Step 13 E -4338.900065899646
  C      -2.016340      2.369086      0.697985
  C      -0.662719      2.707122      0.894693
  C      -0.342391      4.040348      1.210473
  C      -1.319399      5.032962      1.265554
  C      -2.650093      4.708430      0.991415
  C      -2.991165      3.384953      0.722506
  C      -2.552570      0.977210      0.611362
  C      -3.417983      0.614107     -0.449092
  C      -4.271033     -0.477007     -0.325724
  C      -4.292705     -1.232016      0.860594
  C      -3.417474     -0.918325      1.897159
  C      -2.533252      0.164463      1.769286
  H      -4.940649     -0.737653     -1.148962
  H      -3.410496     -1.509900      2.814242
  P       0.638716      1.427824      0.627422
  C       1.608107      2.113620     -0.875523
  C       1.684720      1.426952      2.234277
  C       0.646801      1.952357     -2.068621
  H       1.150582      2.302309     -2.985338
  H       0.344236      0.910820     -2.222519
  H      -0.261150      2.560577     -1.932189
  C       2.005973      3.598157     -0.807017
  H       2.624819      3.844966      0.063701
  H       2.602522      3.823618     -1.707165
  H       1.133767      4.264203     -0.823926
  C       2.882404      1.275724     -1.081923
  H       2.681172      0.199780     -1.098106
  H       3.330973      1.551671     -2.050984
  H       3.631860      1.480823     -0.303395
  C       2.447063      0.094870      2.301065
  H       1.750485     -0.752655      2.352829
  H       3.113583     -0.056470      1.441661
  H       3.064022      0.083074      3.215105
  C       2.693383      2.579464      2.363360
  H       2.221985      3.570924      2.357869
  H       3.209802      2.474114      3.332488
  H       3.463077      2.549449      1.580327
  C       0.702910      1.470654      3.418553
  H       0.138995      2.412899      3.467363
  H      -0.010789      0.634081      3.380643
  H       1.276478      1.369451      4.354930
  Pd     -0.496572     -0.608258      0.228807
  Br     -0.780268     -3.454669      3.009210
  N      -1.494737     -2.450043      0.001634
  C       1.013901     -1.514311     -0.720631
  C       0.986155     -1.556241     -2.122565
  H       0.179441     -1.072311     -2.676633
  C       1.974731     -2.238405     -2.838521
  H       1.936408     -2.251153     -3.931797
  C       2.999345     -2.908895     -2.162652
  H       3.774247     -3.441818     -2.720402
  C       3.007133     -2.907941     -0.765460
  H       3.785803     -3.449460     -0.219766
  C       2.017187     -2.221693     -0.049407
  H       2.036229     -2.261809      1.038608
  C      -1.279890     -3.382829     -1.022119
  C      -2.029733     -3.343727     -2.216843
  H      -2.784477     -2.561425     -2.340906
  C      -1.809528     -4.271008     -3.237578
  H      -2.404526     -4.215473     -4.154190
  C      -0.827734     -5.258621     -3.098356
  H      -0.647491     -5.979207     -3.900380
  C      -0.084761     -5.313741     -1.912061
  H       0.680169     -6.085308     -1.783189
  C      -0.310516     -4.397449     -0.886201
  H       0.266983     -4.453797      0.036823
  H      -2.467403     -2.148695     -0.041122
  H      -1.152897     -3.042596      1.557920
  H       0.688099      4.322432      1.409868
  H      -1.036748      6.059537      1.511009
  H      -3.425402      5.478454      1.012547
  H      -4.037905      3.115754      0.564458
  H      -1.932489      0.468687      2.626639
  H      -3.441625      1.231655     -1.349824
  H      -4.988227     -2.068263      0.963333
75
Coordinates from ORCA-job PR-104-p Relaxed Surface Scan Step 14 E -4338.898178569503
  C      -2.014303      2.372959      0.700229
  C      -0.659988      2.707277      0.898665
  C      -0.336595      4.039360      1.216197
  C      -1.311160      5.034251      1.273028
  C      -2.642644      4.713316      0.998482
  C      -2.986682      3.391188      0.726767
  C      -2.554058      0.982764      0.609048
  C      -3.421115      0.625887     -0.451989
  C      -4.275414     -0.464810     -0.332767
  C      -4.297266     -1.224705      0.850310
  C      -3.421114     -0.916292      1.887618
  C      -2.535295      0.165457      1.763642
  H      -4.945868     -0.721095     -1.156710
  H      -3.414706     -1.511350      2.802416
  P       0.639271      1.426299      0.628577
  C       1.610801      2.119682     -0.869640
  C       1.682602      1.419720      2.237263
  C       0.651402      1.964079     -2.065048
  H       1.156371      2.319111     -2.979174
  H       0.349704      0.923212     -2.224730
  H      -0.257118      2.571093     -1.926854
  C       2.007258      3.604137     -0.792398
  H       2.625617      3.846320      0.080040
  H       2.603822      3.835652     -1.690994
  H       1.134306      4.269450     -0.805242
  C       2.886206      1.284054     -1.078405
  H       2.685802      0.208190     -1.101001
  H       3.336343      1.565880     -2.045046
  H       3.634134      1.485330     -0.297391
  C       2.440790      0.085259      2.303744
  H       1.741606     -0.760300      2.351388
  H       3.109667     -0.066059      1.446221
  H       3.054780      0.069697      3.219743
  C       2.694636      2.568808      2.370461
  H       2.226425      3.561773      2.366181
  H       3.209232      2.459930      3.340182
  H       3.465471      2.537965      1.588557
  C       0.698163      1.464549      3.419334
  H       0.137127      2.408535      3.468293
  H      -0.018313      0.630399      3.378244
  H       1.269076      1.359936      4.356964
  Pd     -0.497587     -0.607915      0.216968
  Br     -0.784458     -3.419120      3.033081
  N      -1.503696     -2.441019     -0.018504
  C       1.010001     -1.510434     -0.740012
  C       0.975350     -1.553664     -2.141847
  H       0.163008     -1.074579     -2.691953
  C       1.963947     -2.230714     -2.862613
  H       1.919974     -2.244406     -3.955683
  C       2.996053     -2.894779     -2.191762
  H       3.771111     -3.423555     -2.753232
  C       3.010912     -2.893103     -0.794608
  H       3.795434     -3.429954     -0.252680
  C       2.020621     -2.212352     -0.073880
  H       2.045464     -2.252016      1.013994
  C      -1.282217     -3.386835     -1.025952
  C      -2.034567     -3.376832     -2.220474
  H      -2.796367     -2.603397     -2.357598
  C      -1.809184     -4.321084     -3.224437
  H      -2.406661     -4.286875     -4.140547
  C      -0.819715     -5.298608     -3.069650
  H      -0.635509     -6.032469     -3.858629
  C      -0.074674     -5.326351     -1.883387
  H       0.695809     -6.090110     -1.741349
  C      -0.305363     -4.393257     -0.874314
  H       0.273340     -4.429849      0.048897
  H      -2.471504     -2.128273     -0.084048
  H      -1.155638     -3.030577      1.592016
  H       0.694739      4.318827      1.415119
  H      -1.025981      6.059777      1.519959
  H      -3.416148      5.485125      1.020829
  H      -4.033990      3.124851      0.567640
  H      -1.932280      0.464484      2.621318
  H      -3.444497      1.247245     -1.350107
  H      -4.993571     -2.060683      0.949870
75
Coordinates from ORCA-job PR-104-p Relaxed Surface Scan Step 15 E -4338.896481889637
  C      -2.012651      2.379830      0.703414
  C      -0.657414      2.708659      0.904918
  C      -0.330088      4.038304      1.228769
  C      -1.301371      5.036130      1.289697
  C      -2.633685      4.720857      1.012673
  C      -2.981680      3.401196      0.734189
  C      -2.557277      0.992123      0.603699
  C      -3.423062      0.644457     -0.461240
  C      -4.280659     -0.444672     -0.350683
  C      -4.307268     -1.211575      0.827633
  C      -3.432764     -0.911675      1.868750
  C      -2.543712      0.168165      1.753479
  H      -4.949780     -0.694143     -1.177812
  H      -3.430660     -1.511810      2.780292
  P       0.638591      1.425375      0.629192
  C       1.613318      2.125933     -0.864003
  C       1.680223      1.408106      2.239108
  C       0.653702      1.982487     -2.060738
  H       1.160037      2.342821     -2.972051
  H       0.348937      0.943803     -2.228244
  H      -0.252974      2.591290     -1.918208
  C       2.015512      3.608241     -0.776211
  H       2.635477      3.841628      0.097530
  H       2.612340      3.844097     -1.673517
  H       1.145129      4.277020     -0.783454
  C       2.885447      1.286952     -1.079064
  H       2.680461      0.212257     -1.111496
  H       3.337692      1.575647     -2.042690
  H       3.633533      1.477835     -0.295565
  C       2.437378      0.072700      2.297919
  H       1.737651     -0.773013      2.335549
  H       3.109853     -0.071523      1.441985
  H       3.047538      0.049255      3.216329
  C       2.693414      2.555088      2.381031
  H       2.226381      3.548576      2.383543
  H       3.207512      2.438849      3.350187
  H       3.464565      2.528914      1.599253
  C       0.694377      1.446071      3.420279
  H       0.133913      2.390073      3.474514
  H      -0.022682      0.612747      3.373073
  H       1.264013      1.335128      4.357974
  Pd     -0.501103     -0.605794      0.203816
  Br     -0.788967     -3.361894      3.058897
  N      -1.513829     -2.430962     -0.039018
  C       1.002211     -1.502355     -0.764697
  C       0.961400     -1.535913     -2.166719
  H       0.144061     -1.056922     -2.709575
  C       1.951310     -2.200847     -2.897041
  H       1.902996     -2.206034     -3.990023
  C       2.990188     -2.864016     -2.235651
  H       3.766261     -3.383444     -2.804404
  C       3.010077     -2.874227     -0.838523
  H       3.799810     -3.410994     -0.304104
  C       2.019033     -2.204738     -0.108409
  H       2.048883     -2.252531      0.979026
  C      -1.281560     -3.395670     -1.022794
  C      -2.032223     -3.422865     -2.218879
  H      -2.800062     -2.659236     -2.376658
  C      -1.799353     -4.391622     -3.197562
  H      -2.396394     -4.385421     -4.114655
  C      -0.803555     -5.358210     -3.016935
  H      -0.613829     -6.111416     -3.786132
  C      -0.059680     -5.349680     -1.829273
  H       0.715322     -6.104679     -1.666079
  C      -0.297492     -4.392019     -0.845407
  H       0.279730     -4.401716      0.079520
  H      -2.476372     -2.109229     -0.131604
  H      -1.160322     -3.007237      1.629196
  H       0.702016      4.313538      1.429407
  H      -1.012955      6.059544      1.541606
  H      -3.404700      5.495065      1.037990
  H      -4.029684      3.139095      0.572616
  H      -1.940860      0.459695      2.613847
  H      -3.442663      1.271376     -1.355574
  H      -5.005831     -2.046445      0.920419
75
Coordinates from ORCA-job PR-104-p Relaxed Surface Scan Step 16 E -4338.894908355117
  C      -2.010537      2.385760      0.708249
  C      -0.654879      2.709026      0.915053
  C      -0.325131      4.034553      1.253220
  C      -1.293707      5.034552      1.320599
  C      -2.626002      4.725747      1.036332
  C      -2.976792      3.409584      0.745259
  C      -2.559380      1.000696      0.596653
  C      -3.417008      0.662014     -0.477557
  C      -4.277890     -0.425983     -0.381134
  C      -4.317501     -1.198616      0.792943
  C      -3.452201     -0.906112      1.843766
  C      -2.558288      0.170897      1.742135
  H      -4.940106     -0.669169     -1.215672
  H      -3.460798     -1.510601      2.752313
  P       0.638459      1.424621      0.630379
  C       1.612645      2.129282     -0.862095
  C       1.682392      1.396612      2.238698
  C       0.653861      1.982876     -2.059167
  H       1.160400      2.341981     -2.970851
  H       0.350270      0.943375     -2.224860
  H      -0.253472      2.591055     -1.918364
  C       2.013029      3.612267     -0.776427
  H       2.632326      3.848100      0.097006
  H       2.610108      3.847008     -1.673879
  H       1.142165      4.280119     -0.785906
  C       2.886408      1.292752     -1.076847
  H       2.683303      0.217801     -1.111330
  H       3.339522      1.583977     -2.039290
  H       3.633138      1.483327     -0.291900
  C       2.439054      0.060392      2.287104
  H       1.739333     -0.785635      2.315359
  H       3.113321     -0.075631      1.431110
  H       3.047516      0.028562      3.206387
  C       2.696875      2.541404      2.387901
  H       2.231068      3.535363      2.398336
  H       3.212132      2.417511      3.355494
  H       3.467072      2.519993      1.605050
  C       0.697221      1.426988      3.420743
  H       0.137428      2.371002      3.481549
  H      -0.020677      0.594593      3.368316
  H       1.267213      1.309367      4.357407
  Pd     -0.501704     -0.606440      0.198271
  Br     -0.784855     -3.315183      3.089277
  N      -1.524680     -2.419387     -0.062317
  C       0.999861     -1.495119     -0.778929
  C       0.953217     -1.523956     -2.180934
  H       0.125912     -1.055539     -2.718223
  C       1.951602     -2.168615     -2.918424
  H       1.899272     -2.169217     -4.011250
  C       3.004599     -2.816819     -2.264164
  H       3.787693     -3.319447     -2.838316
  C       3.029988     -2.833203     -0.867022
  H       3.830823     -3.358922     -0.338218
  C       2.031059     -2.183518     -0.130104
  H       2.066836     -2.234712      0.957093
  C      -1.287013     -3.403194     -1.023091
  C      -2.038612     -3.461823     -2.218194
  H      -2.806820     -2.702297     -2.393959
  C      -1.807588     -4.455169     -3.172155
  H      -2.405864     -4.471608     -4.088336
  C      -0.813298     -5.418597     -2.968245
  H      -0.626222     -6.192345     -3.717387
  C      -0.068147     -5.380162     -1.781706
  H       0.705463     -6.132222     -1.599287
  C      -0.302189     -4.396028     -0.823187
  H       0.276366     -4.382939      0.100800
  H      -2.479795     -2.084875     -0.184039
  H      -1.163953     -2.985312      1.661662
  H       0.706771      4.304709      1.460777
  H      -1.003200      6.054631      1.583410
  H      -3.394986      5.501788      1.066799
  H      -4.025108      3.151701      0.578949
  H      -1.960131      0.454781      2.608416
  H      -3.426952      1.294095     -1.368413
  H      -5.019104     -2.032064      0.874996
75
Coordinates from ORCA-job PR-104-p Relaxed Surface Scan Step 17 E -4338.893460701483
  C      -2.008811      2.388423      0.708165
  C      -0.652449      2.709333      0.914620
  C      -0.319757      4.035330      1.248140
  C      -1.286622      5.036920      1.316213
  C      -2.620165      4.729605      1.036173
  C      -2.973419      3.413783      0.746521
  C      -2.560160      1.004559      0.592705
  C      -3.419120      0.670840     -0.481894
  C      -4.281535     -0.416274     -0.388529
  C      -4.320246     -1.193836      0.782230
  C      -3.453234     -0.906535      1.833066
  C      -2.559397      0.170730      1.735145
  H      -4.945005     -0.655405     -1.223248
  H      -3.461499     -1.514667      2.739289
  P       0.639149      1.423299      0.629948
  C       1.617657      2.137246     -0.854678
  C       1.677098      1.389302      2.242028
  C       0.660587      2.004840     -2.054725
  H       1.169056      2.372879     -2.961780
  H       0.355963      0.967684     -2.231814
  H      -0.246222      2.612694     -1.908894
  C       2.019842      3.618616     -0.751951
  H       2.639803      3.843173      0.124195
  H       2.616736      3.863556     -1.646781
  H       1.149446      4.287522     -0.752326
  C       2.890331      1.300533     -1.075184
  H       2.685289      0.226444     -1.121037
  H       3.345980      1.600703     -2.033681
  H       3.635847      1.481744     -0.286866
  C       2.430248      0.051279      2.291574
  H       1.728286     -0.792994      2.315221
  H       3.108087     -0.084863      1.438554
  H       3.034390      0.016391      3.213625
  C       2.693933      2.531292      2.397023
  H       2.230678      3.526429      2.407727
  H       3.205796      2.404368      3.366056
  H       3.466578      2.509494      1.616521
  C       0.687166      1.420223      3.420038
  H       0.130277      2.365967      3.480608
  H      -0.033403      0.590426      3.362599
  H       1.252799      1.298566      4.358845
  Pd     -0.503064     -0.604440      0.185317
  Br     -0.768502     -3.274845      3.122872
  N      -1.526484     -2.415960     -0.070761
  C       0.993405     -1.490474     -0.802093
  C       0.940927     -1.513010     -2.204086
  H       0.113396     -1.038933     -2.735884
  C       1.933578     -2.158298     -2.948614
  H       1.876523     -2.153877     -4.041212
  C       2.986402     -2.814147     -2.301880
  H       3.764615     -3.317920     -2.881663
  C       3.017379     -2.837318     -0.905038
  H       3.818053     -3.369055     -0.381986
  C       2.024168     -2.186920     -0.161022
  H       2.064243     -2.243637      0.925625
  C      -1.283396     -3.409640     -1.017841
  C      -2.035837     -3.489976     -2.211776
  H      -2.809128     -2.737946     -2.397267
  C      -1.799317     -4.495012     -3.152144
  H      -2.398655     -4.528164     -4.067252
  C      -0.797631     -5.448312     -2.936738
  H      -0.605568     -6.230592     -3.675717
  C      -0.051600     -5.388388     -1.751481
  H       0.727628     -6.132367     -1.559765
  C      -0.292193     -4.393867     -0.805603
  H       0.286484     -4.365026      0.118050
  H      -2.479841     -2.080939     -0.203062
  H      -1.152751     -2.972306      1.707104
  H       0.713519      4.304773      1.450453
  H      -0.993769      6.057160      1.575806
  H      -3.387822      5.506959      1.066811
  H      -4.022271      3.157562      0.580982
  H      -1.959997      0.450699      2.601896
  H      -3.429093      1.306215     -1.370408
  H      -5.022247     -2.027210      0.861561
75
Coordinates from ORCA-job PR-104-p Relaxed Surface Scan Step 18 E -4338.892053941325
  C      -2.009024      2.390353      0.707795
  C      -0.652411      2.709092      0.916298
  C      -0.318292      4.034306      1.251599
  C      -1.283994      5.036892      1.321298
  C      -2.617865      4.731589      1.040607
  C      -2.972455      3.416780      0.748047
  C      -2.562155      1.007502      0.588139
  C      -3.420429      0.677670     -0.488157
  C      -4.284256     -0.408632     -0.398417
  C      -4.324980     -1.189145      0.770264
  C      -3.458765     -0.905452      1.822719
  C      -2.563826      0.171143      1.728626
  H      -4.947218     -0.644808     -1.234387
  H      -3.469059     -1.515677      2.727544
  P       0.637996      1.422391      0.628856
  C       1.617908      2.141486     -0.852386
  C       1.675563      1.383047      2.241057
  C       0.656238      2.027879     -2.050617
  H       1.164663      2.400865     -2.955701
  H       0.343316      0.995022     -2.236667
  H      -0.245513      2.641136     -1.896014
  C       2.031645      3.618730     -0.737298
  H       2.656577      3.830185      0.138681
  H       2.627075      3.867732     -1.631982
  H       1.166288      4.294164     -0.727840
  C       2.883219      1.296772     -1.084710
  H       2.669448      0.224778     -1.139897
  H       3.338222      1.602250     -2.041836
  H       3.632692      1.464660     -0.297251
  C       2.429967      0.045458      2.285270
  H       1.728843     -0.799664      2.303329
  H       3.109413     -0.085659      1.432754
  H       3.032564      0.006499      3.208182
  C       2.691290      2.525363      2.400931
  H       2.226997      3.519948      2.416238
  H       3.203708      2.394721      3.369190
  H       3.463627      2.507970      1.620007
  C       0.685315      1.408236      3.418920
  H       0.127229      2.353053      3.482868
  H      -0.034213      0.577790      3.358203
  H       1.250822      1.283802      4.357443
  Pd     -0.504867     -0.603945      0.178141
  Br     -0.749257     -3.243330      3.154923
  N      -1.530519     -2.411546     -0.082034
  C       0.991595     -1.488791     -0.810345
  C       0.933854     -1.521337     -2.211990
  H       0.100497     -1.057582     -2.743717
  C       1.928037     -2.164892     -2.956061
  H       1.866391     -2.168758     -4.048426
  C       2.988255     -2.808602     -2.309177
  H       3.767655     -3.310881     -2.888661
  C       3.025135     -2.821626     -0.912352
  H       3.831900     -3.343676     -0.388888
  C       2.030145     -2.173377     -0.168902
  H       2.075482     -2.221670      0.918002
  C      -1.284533     -3.411260     -1.020103
  C      -2.038113     -3.506145     -2.212839
  H      -2.814036     -2.758367     -2.404671
  C      -1.799733     -4.519542     -3.143710
  H      -2.400381     -4.563451     -4.057550
  C      -0.794408     -5.467356     -2.921021
  H      -0.600800     -6.256075     -3.652717
  C      -0.046887     -5.393301     -1.737333
  H       0.735050     -6.132874     -1.539495
  C      -0.289777     -4.390953     -0.800453
  H       0.289617     -4.351813      0.122427
  H      -2.481537     -2.073813     -0.223683
  H      -1.141530     -2.963191      1.747412
  H       0.715370      4.302413      1.453757
  H      -0.989946      6.056396      1.582431
  H      -3.384627      5.509783      1.072383
  H      -4.021500      3.162137      0.581302
  H      -1.965015      0.448324      2.596662
  H      -3.428681      1.315318     -1.375060
  H      -5.027876     -2.022037      0.846669
75
Coordinates from ORCA-job PR-104-p Relaxed Surface Scan Step 19 E -4338.890841116788
  C      -2.008417      2.393657      0.711695
  C      -0.651335      2.709682      0.920731
  C      -0.316134      4.031838      1.266963
  C      -1.280446      5.035361      1.342046
  C      -2.614308      4.733869      1.057320
  C      -2.970442      3.421230      0.757032
  C      -2.563839      1.012223      0.586958
  C      -3.419851      0.687552     -0.492651
  C      -4.285439     -0.397870     -0.409103
  C      -4.330524     -1.182257      0.756759
  C      -3.467029     -0.903190      1.812631
  C      -2.570249      0.172288      1.724746
  H      -4.946476     -0.630141     -1.247697
  H      -3.481129     -1.516288      2.715529
  P       0.637627      1.422037      0.629383
  C       1.619052      2.138461     -0.852932
  C       1.675075      1.379714      2.241764
  C       0.663205      2.008658     -2.054237
  H       1.172911      2.377799     -2.960176
  H       0.358384      0.971750     -2.233109
  H      -0.243492      2.616711     -1.908520
  C       2.024899      3.618786     -0.749560
  H       2.643556      3.842061      0.127766
  H       2.624497      3.861808     -1.643133
  H       1.156516      4.290035     -0.752546
  C       2.890043      1.299502     -1.074256
  H       2.682198      0.226139     -1.124247
  H       3.348083      1.601992     -2.030896
  H       3.634749      1.475761     -0.284023
  C       2.433191      0.044088      2.281413
  H       1.734594     -0.803193      2.293915
  H       3.115020     -0.080711      1.429794
  H       3.033850      0.002512      3.205480
  C       2.687830      2.523808      2.406489
  H       2.221132      3.517264      2.424725
  H       3.199647      2.391096      3.374800
  H       3.461026      2.510719      1.626358
  C       0.684220      1.397987      3.419244
  H       0.122721      2.340640      3.485549
  H      -0.032225      0.565079      3.356024
  H       1.249735      1.273017      4.357705
  Pd     -0.506300     -0.603362      0.174899
  Br     -0.730819     -3.195415      3.185976
  N      -1.538745     -2.402601     -0.098679
  C       0.988049     -1.484786     -0.819725
  C       0.932044     -1.504065     -2.221721
  H       0.101174     -1.031817     -2.750170
  C       1.925275     -2.143651     -2.970579
  H       1.864921     -2.137204     -4.063013
  C       2.983166     -2.796014     -2.328508
  H       3.761800     -3.295120     -2.911749
  C       3.019100     -2.820861     -0.931785
  H       3.824330     -3.349142     -0.412219
  C       2.025024     -2.176802     -0.183600
  H       2.069613     -2.234433      0.902852
  C      -1.287800     -3.410814     -1.024132
  C      -2.039534     -3.523530     -2.217085
  H      -2.817675     -2.780664     -2.419053
  C      -1.796790     -4.547501     -3.135138
  H      -2.396493     -4.604487     -4.048916
  C      -0.788292     -5.489049     -2.900415
  H      -0.591133     -6.285861     -3.622314
  C      -0.042323     -5.397706     -1.716739
  H       0.741925     -6.132128     -1.508944
  C      -0.290184     -4.385538     -0.792035
  H       0.287561     -4.333644      0.131253
  H      -2.484992     -2.058519     -0.256359
  H      -1.133787     -2.942069      1.784133
  H       0.717161      4.296611      1.474731
  H      -0.985397      6.052494      1.611198
  H      -3.380135      5.512780      1.093778
  H      -4.019818      3.168819      0.589004
  H      -1.972929      0.445318      2.595090
  H      -3.424563      1.328164     -1.377445
  H      -5.034733     -2.014473      0.828302
75
Coordinates from ORCA-job PR-104-p Relaxed Surface Scan Step 20 E -4338.889771091586
  C      -2.004619      2.406612      0.720837
  C      -0.645756      2.710861      0.935095
  C      -0.302522      4.026315      1.298861
  C      -1.260273      5.034948      1.387077
  C      -2.595952      4.745862      1.098031
  C      -2.960039      3.439712      0.779741
  C      -2.569600      1.031218      0.574833
  C      -3.416712      0.726496     -0.517200
  C      -4.289329     -0.355056     -0.456882
  C      -4.350082     -1.154409      0.697783
  C      -3.495619     -0.894018      1.765594
  C      -2.592247      0.177310      1.701525
  H      -4.943678     -0.571863     -1.304847
  H      -3.522582     -1.518615      2.660336
  P       0.636453      1.419181      0.630733
  C       1.625764      2.150173     -0.839879
  C       1.667619      1.353407      2.246693
  C       0.672426      2.040263     -2.045118
  H       1.185233      2.421284     -2.944379
  H       0.366335      1.006540     -2.239299
  H      -0.233431      2.648072     -1.892988
  C       2.038777      3.626972     -0.716182
  H       2.657567      3.835450      0.164821
  H       2.640864      3.878774     -1.605623
  H       1.173880      4.302663     -0.711376
  C       2.893235      1.308556     -1.070869
  H       2.679844      0.237587     -1.142686
  H       3.357655      1.627211     -2.019135
  H       3.635082      1.464714     -0.273717
  C       2.420953      0.014807      2.273826
  H       1.719940     -0.830648      2.266144
  H       3.112051     -0.097386      1.427899
  H       3.011664     -0.042623      3.203473
  C       2.684013      2.491511      2.428654
  H       2.220872      3.486311      2.458990
  H       3.193392      2.344435      3.396208
  H       3.458874      2.485980      1.650057
  C       0.671845      1.362412      3.420267
  H       0.114264      2.306697      3.494999
  H      -0.047835      0.533452      3.345397
  H       1.233061      1.224430      4.359507
  Pd     -0.512559     -0.598444      0.149319
  Br     -0.698147     -3.037434      3.202062
  N      -1.559270     -2.382493     -0.145148
  C       0.972558     -1.464094     -0.872038
  C       0.892893     -1.475297     -2.273148
  H       0.051456     -1.002726     -2.784625
  C       1.875065     -2.107544     -3.042864
  H       1.794890     -2.096330     -4.133994
  C       2.947312     -2.757920     -2.423078
  H       3.717348     -3.251045     -3.022568
  C       3.009195     -2.787687     -1.027317
  H       3.826929     -3.313240     -0.524806
  C       2.025122     -2.153096     -0.258400
  H       2.090391     -2.215132      0.826578
  C      -1.286456     -3.430065     -1.014243
  C      -2.035951     -3.623480     -2.199652
  H      -2.829832     -2.909280     -2.440417
  C      -1.771275     -4.689287     -3.062103
  H      -2.370275     -4.806666     -3.970616
  C      -0.742345     -5.595324     -2.780628
  H      -0.528062     -6.424157     -3.460290
  C       0.001273     -5.425437     -1.603735
  H       0.801016     -6.130868     -1.357859
  C      -0.269498     -4.373101     -0.732656
  H       0.304112     -4.260557      0.187063
  H      -2.490836     -2.029302     -0.360569
  H      -1.123627     -2.843538      1.804250
  H       0.732238      4.281742      1.510654
  H      -0.958682      6.046398      1.670057
  H      -3.356877      5.529017      1.144816
  H      -4.010850      3.196282      0.607388
  H      -1.999434      0.433586      2.579988
  H      -3.408795      1.379071     -1.393179
  H      -5.059283     -1.983749      0.751185
75
Coordinates from ORCA-job PR-104-p Relaxed Surface Scan Step 21 E -4338.888721839837
  C      -2.003799      2.409768      0.722087
  C      -0.644521      2.711885      0.936953
  C      -0.299742      4.026248      1.303341
  C      -1.256419      5.035616      1.394675
  C      -2.592597      4.748603      1.105906
  C      -2.958126      3.443701      0.784218
  C      -2.570564      1.035601      0.570749
  C      -3.416184      0.735439     -0.523613
  C      -4.289487     -0.345916     -0.468614
  C      -4.352301     -1.149681      0.682782
  C      -3.499619     -0.893439      1.753024
  C      -2.596246      0.178067      1.694524
  H      -4.942788     -0.559067     -1.318325
  H      -3.528309     -1.521351      2.645383
  P       0.636440      1.419516      0.629747
  C       1.628237      2.154013     -0.837323
  C       1.665135      1.346430      2.246954
  C       0.674546      2.052527     -2.042958
  H       1.188104      2.437083     -2.940295
  H       0.366433      1.020377     -2.242390
  H      -0.230062      2.661402     -1.887583
  C       2.045888      3.628925     -0.706373
  H       2.666155      3.830858      0.175162
  H       2.647893      3.883612     -1.595041
  H       1.183025      4.307226     -0.697085
  C       2.892518      1.308912     -1.072981
  H       2.674869      0.239093     -1.151500
  H       3.358480      1.631652     -2.019103
  H       3.634796      1.457119     -0.274749
  C       2.414408      0.005491      2.271540
  H       1.710901     -0.837801      2.258729
  H       3.107416     -0.105642      1.427044
  H       3.002539     -0.056982      3.202502
  C       2.684485      2.481034      2.433847
  H       2.223992      3.476947      2.466533
  H       3.192255      2.329757      3.401614
  H       3.460309      2.475797      1.656199
  C       0.667408      1.355095      3.418817
  H       0.112210      2.300706      3.494780
  H      -0.054530      0.528368      3.340626
  H       1.226583      1.213442      4.358726
  Pd     -0.513285     -0.595765      0.141125
  Br     -0.698484     -3.037333      3.233550
  N      -1.563781     -2.375677     -0.158081
  C       0.968507     -1.457646     -0.888176
  C       0.883518     -1.464964     -2.289015
  H       0.038718     -0.993529     -2.795994
  C       1.865147     -2.091331     -3.064332
  H       1.780387     -2.077657     -4.155098
  C       2.942946     -2.738445     -2.450746
  H       3.712534     -3.226770     -3.054725
  C       3.011262     -2.770646     -1.055383
  H       3.833921     -3.292999     -0.557588
  C       2.027499     -2.142485     -0.280854
  H       2.099013     -2.205197      0.803656
  C      -1.286307     -3.433232     -1.011567
  C      -2.029734     -3.642728     -2.198266
  H      -2.821446     -2.930882     -2.452951
  C      -1.762140     -4.720557     -3.044644
  H      -2.356715     -4.849543     -3.954508
  C      -0.735610     -5.623707     -2.745597
  H      -0.518483     -6.461985     -3.412629
  C       0.001681     -5.438168     -1.566942
  H       0.799170     -6.141239     -1.307297
  C      -0.272218     -4.373942     -0.711277
  H       0.298213     -4.252909      0.211028
  H      -2.490975     -2.019206     -0.386348
  H      -1.119362     -2.840954      1.840921
  H       0.735469      4.280288      1.514509
  H      -0.953588      6.046118      1.679723
  H      -3.352669      5.532450      1.154991
  H      -4.009196      3.201810      0.611261
  H      -2.004567      0.430863      2.574828
  H      -3.406337      1.391079     -1.397286
  H      -5.061688     -1.979134      0.731807
